60		 40 
-1.500000	-1.000000	0.000000 
-1.500000	-0.948718	0.000000 
-1.500000	-0.897436	0.000000 
-1.500000	-0.846154	0.000000 
-1.500000	-0.794872	0.000000 
-1.500000	-0.743590	0.000000 
-1.500000	-0.692308	0.000000 
-1.500000	-0.641026	0.000000 
-1.500000	-0.589744	0.000000 
-1.500000	-0.538462	0.000000 
-1.500000	-0.487179	0.000000 
-1.500000	-0.435897	0.000000 
-1.500000	-0.384615	0.000000 
-1.500000	-0.333333	0.000000 
-1.500000	-0.282051	0.000000 
-1.500000	-0.230769	0.000000 
-1.500000	-0.179487	0.000000 
-1.500000	-0.128205	0.000000 
-1.500000	-0.076923	0.000000 
-1.500000	-0.025641	0.000000 
-1.500000	0.025641	0.000000 
-1.500000	0.076923	0.000000 
-1.500000	0.128205	0.000000 
-1.500000	0.179487	0.000000 
-1.500000	0.230769	0.000000 
-1.500000	0.282051	0.000000 
-1.500000	0.333333	0.000000 
-1.500000	0.384615	0.000000 
-1.500000	0.435897	0.000000 
-1.500000	0.487180	0.000000 
-1.500000	0.538462	0.000000 
-1.500000	0.589744	0.000000 
-1.500000	0.641026	0.000000 
-1.500000	0.692308	0.000000 
-1.500000	0.743590	0.000000 
-1.500000	0.794872	0.000000 
-1.500000	0.846154	0.000000 
-1.500000	0.897436	0.000000 
-1.500000	0.948718	0.000000 
-1.500000	1.000000	0.000000 
-1.449153	-1.000000	0.000000 
-1.449153	-0.948718	0.000000 
-1.449153	-0.897436	0.000000 
-1.449153	-0.846154	0.000000 
-1.449153	-0.794872	0.000000 
-1.449153	-0.743590	0.000000 
-1.449153	-0.692308	0.000000 
-1.449153	-0.641026	0.000000 
-1.449153	-0.589744	0.000000 
-1.449153	-0.538462	0.000000 
-1.449153	-0.487179	0.000000 
-1.449153	-0.435897	0.000000 
-1.449153	-0.384615	0.000000 
-1.449153	-0.333333	0.000000 
-1.449153	-0.282051	0.000000 
-1.449153	-0.230769	0.000000 
-1.449153	-0.179487	0.000000 
-1.449153	-0.128205	0.000000 
-1.449153	-0.076923	0.000000 
-1.449153	-0.025641	0.000000 
-1.449153	0.025641	0.000000 
-1.449153	0.076923	0.000000 
-1.449153	0.128205	0.000000 
-1.449153	0.179487	0.000000 
-1.449153	0.230769	0.000000 
-1.449153	0.282051	0.000000 
-1.449153	0.333333	0.000000 
-1.449153	0.384615	0.000000 
-1.449153	0.435897	0.000000 
-1.449153	0.487180	0.000000 
-1.449153	0.538462	0.000000 
-1.449153	0.589744	0.000000 
-1.449153	0.641026	0.000000 
-1.449153	0.692308	0.000000 
-1.449153	0.743590	0.000000 
-1.449153	0.794872	0.000000 
-1.449153	0.846154	0.000000 
-1.449153	0.897436	0.000000 
-1.449153	0.948718	0.000000 
-1.449153	1.000000	0.000000 
-1.398305	-1.000000	0.000000 
-1.398305	-0.948718	0.000000 
-1.398305	-0.897436	0.000000 
-1.398305	-0.846154	0.000000 
-1.398305	-0.794872	0.000000 
-1.398305	-0.743590	0.000000 
-1.398305	-0.692308	0.000000 
-1.398305	-0.641026	0.000000 
-1.398305	-0.589744	0.000000 
-1.398305	-0.538462	0.000000 
-1.398305	-0.487179	0.000000 
-1.398305	-0.435897	0.000000 
-1.398305	-0.384615	0.000000 
-1.398305	-0.333333	0.000000 
-1.398305	-0.282051	0.000000 
-1.398305	-0.230769	0.000000 
-1.398305	-0.179487	0.000000 
-1.398305	-0.128205	0.000000 
-1.398305	-0.076923	0.000000 
-1.398305	-0.025641	0.000000 
-1.398305	0.025641	0.000000 
-1.398305	0.076923	0.000000 
-1.398305	0.128205	0.000000 
-1.398305	0.179487	0.000000 
-1.398305	0.230769	0.000000 
-1.398305	0.282051	0.000000 
-1.398305	0.333333	0.000000 
-1.398305	0.384615	0.000000 
-1.398305	0.435897	0.000000 
-1.398305	0.487180	0.000000 
-1.398305	0.538462	0.000000 
-1.398305	0.589744	0.000000 
-1.398305	0.641026	0.000000 
-1.398305	0.692308	0.000000 
-1.398305	0.743590	0.000000 
-1.398305	0.794872	0.000000 
-1.398305	0.846154	0.000000 
-1.398305	0.897436	0.000000 
-1.398305	0.948718	0.000000 
-1.398305	1.000000	0.000000 
-1.347458	-1.000000	0.000000 
-1.347458	-0.948718	0.000000 
-1.347458	-0.897436	0.000000 
-1.347458	-0.846154	0.000000 
-1.347458	-0.794872	0.000000 
-1.347458	-0.743590	0.000000 
-1.347458	-0.692308	0.000000 
-1.347458	-0.641026	0.000000 
-1.347458	-0.589744	0.000000 
-1.347458	-0.538462	0.000000 
-1.347458	-0.487179	0.000000 
-1.347458	-0.435897	0.000000 
-1.347458	-0.384615	0.000000 
-1.347458	-0.333333	0.000000 
-1.347458	-0.282051	0.000000 
-1.347458	-0.230769	0.000000 
-1.347458	-0.179487	0.000000 
-1.347458	-0.128205	0.000000 
-1.347458	-0.076923	0.000000 
-1.347458	-0.025641	0.000000 
-1.347458	0.025641	0.000000 
-1.347458	0.076923	0.000000 
-1.347458	0.128205	0.000000 
-1.347458	0.179487	0.000000 
-1.347458	0.230769	0.000000 
-1.347458	0.282051	0.000000 
-1.347458	0.333333	0.000000 
-1.347458	0.384615	0.000000 
-1.347458	0.435897	0.000000 
-1.347458	0.487180	0.000000 
-1.347458	0.538462	0.000000 
-1.347458	0.589744	0.000000 
-1.347458	0.641026	0.000000 
-1.347458	0.692308	0.000000 
-1.347458	0.743590	0.000000 
-1.347458	0.794872	0.000000 
-1.347458	0.846154	0.000000 
-1.347458	0.897436	0.000000 
-1.347458	0.948718	0.000000 
-1.347458	1.000000	0.000000 
-1.296610	-1.000000	0.000000 
-1.296610	-0.948718	0.000000 
-1.296610	-0.897436	0.000000 
-1.296610	-0.846154	0.000000 
-1.296610	-0.794872	0.000000 
-1.296610	-0.743590	0.000000 
-1.296610	-0.692308	0.000000 
-1.296610	-0.641026	0.000000 
-1.296610	-0.589744	0.000000 
-1.296610	-0.538462	0.000000 
-1.296610	-0.487179	0.000000 
-1.296610	-0.435897	0.000000 
-1.296610	-0.384615	0.000000 
-1.296610	-0.333333	0.000000 
-1.296610	-0.282051	0.000000 
-1.296610	-0.230769	0.000000 
-1.296610	-0.179487	0.000000 
-1.296610	-0.128205	0.000000 
-1.296610	-0.076923	0.000000 
-1.296610	-0.025641	0.000000 
-1.296610	0.025641	0.000000 
-1.296610	0.076923	0.000000 
-1.296610	0.128205	0.000000 
-1.296610	0.179487	0.000000 
-1.296610	0.230769	0.000000 
-1.296610	0.282051	0.000000 
-1.296610	0.333333	0.000000 
-1.296610	0.384615	0.000000 
-1.296610	0.435897	0.000000 
-1.296610	0.487180	0.000000 
-1.296610	0.538462	0.000000 
-1.296610	0.589744	0.000000 
-1.296610	0.641026	0.000000 
-1.296610	0.692308	0.000000 
-1.296610	0.743590	0.000000 
-1.296610	0.794872	0.000000 
-1.296610	0.846154	0.000000 
-1.296610	0.897436	0.000000 
-1.296610	0.948718	0.000000 
-1.296610	1.000000	0.000000 
-1.245763	-1.000000	0.000000 
-1.245763	-0.948718	0.000000 
-1.245763	-0.897436	0.000000 
-1.245763	-0.846154	0.000000 
-1.245763	-0.794872	0.000000 
-1.245763	-0.743590	0.000000 
-1.245763	-0.692308	0.000000 
-1.245763	-0.641026	0.000000 
-1.245763	-0.589744	0.000000 
-1.245763	-0.538462	0.000000 
-1.245763	-0.487179	0.000000 
-1.245763	-0.435897	0.000000 
-1.245763	-0.384615	0.000000 
-1.245763	-0.333333	0.000000 
-1.245763	-0.282051	0.000000 
-1.245763	-0.230769	0.000000 
-1.245763	-0.179487	0.000000 
-1.245763	-0.128205	0.000000 
-1.245763	-0.076923	0.000000 
-1.245763	-0.025641	0.000000 
-1.245763	0.025641	0.000000 
-1.245763	0.076923	0.000000 
-1.245763	0.128205	0.000000 
-1.245763	0.179487	0.000000 
-1.245763	0.230769	0.000000 
-1.245763	0.282051	0.000000 
-1.245763	0.333333	0.000000 
-1.245763	0.384615	0.000000 
-1.245763	0.435897	0.000000 
-1.245763	0.487180	0.000000 
-1.245763	0.538462	0.000000 
-1.245763	0.589744	0.000000 
-1.245763	0.641026	0.000000 
-1.245763	0.692308	0.000000 
-1.245763	0.743590	0.000000 
-1.245763	0.794872	0.000000 
-1.245763	0.846154	0.000000 
-1.245763	0.897436	0.000000 
-1.245763	0.948718	0.000000 
-1.245763	1.000000	0.000000 
-1.194915	-1.000000	0.000000 
-1.194915	-0.948718	0.000000 
-1.194915	-0.897436	0.000000 
-1.194915	-0.846154	0.000000 
-1.194915	-0.794872	0.000000 
-1.194915	-0.743590	0.000000 
-1.194915	-0.692308	0.000000 
-1.194915	-0.641026	0.000000 
-1.194915	-0.589744	0.000000 
-1.194915	-0.538462	0.000000 
-1.194915	-0.487179	0.000000 
-1.194915	-0.435897	0.000000 
-1.194915	-0.384615	0.000000 
-1.194915	-0.333333	0.000000 
-1.194915	-0.282051	0.000000 
-1.194915	-0.230769	0.000000 
-1.194915	-0.179487	0.000000 
-1.194915	-0.128205	0.000000 
-1.194915	-0.076923	0.000000 
-1.194915	-0.025641	0.000000 
-1.194915	0.025641	0.000000 
-1.194915	0.076923	0.000000 
-1.194915	0.128205	0.000000 
-1.194915	0.179487	0.000000 
-1.194915	0.230769	0.000000 
-1.194915	0.282051	0.000000 
-1.194915	0.333333	0.000000 
-1.194915	0.384615	0.000000 
-1.194915	0.435897	0.000000 
-1.194915	0.487180	0.000000 
-1.194915	0.538462	0.000000 
-1.194915	0.589744	0.000000 
-1.194915	0.641026	0.000000 
-1.194915	0.692308	0.000000 
-1.194915	0.743590	0.000000 
-1.194915	0.794872	0.000000 
-1.194915	0.846154	0.000000 
-1.194915	0.897436	0.000000 
-1.194915	0.948718	0.000000 
-1.194915	1.000000	0.000000 
-1.144068	-1.000000	0.000000 
-1.144068	-0.948718	0.000000 
-1.144068	-0.897436	0.000000 
-1.144068	-0.846154	0.000000 
-1.144068	-0.794872	0.000000 
-1.144068	-0.743590	0.000000 
-1.144068	-0.692308	0.000000 
-1.144068	-0.641026	0.000000 
-1.144068	-0.589744	0.000000 
-1.144068	-0.538462	0.000000 
-1.144068	-0.487179	0.000000 
-1.144068	-0.435897	0.000000 
-1.144068	-0.384615	0.000000 
-1.144068	-0.333333	0.000000 
-1.144068	-0.282051	0.000000 
-1.144068	-0.230769	0.000000 
-1.144068	-0.179487	0.000000 
-1.144068	-0.128205	0.000000 
-1.144068	-0.076923	0.000000 
-1.144068	-0.025641	0.000000 
-1.144068	0.025641	0.000000 
-1.144068	0.076923	0.000000 
-1.144068	0.128205	0.000000 
-1.144068	0.179487	0.000000 
-1.144068	0.230769	0.000000 
-1.144068	0.282051	0.000000 
-1.144068	0.333333	0.000000 
-1.144068	0.384615	0.000000 
-1.144068	0.435897	0.000000 
-1.144068	0.487180	0.000000 
-1.144068	0.538462	0.000000 
-1.144068	0.589744	0.000000 
-1.144068	0.641026	0.000000 
-1.144068	0.692308	0.000000 
-1.144068	0.743590	0.000000 
-1.144068	0.794872	0.000000 
-1.144068	0.846154	0.000000 
-1.144068	0.897436	0.000000 
-1.144068	0.948718	0.000000 
-1.144068	1.000000	0.000000 
-1.093220	-1.000000	0.000000 
-1.093220	-0.948718	0.000000 
-1.093220	-0.897436	0.000000 
-1.093220	-0.846154	0.000000 
-1.093220	-0.794872	0.000000 
-1.093220	-0.743590	0.000000 
-1.093220	-0.692308	0.000000 
-1.093220	-0.641026	0.000000 
-1.093220	-0.589744	0.000000 
-1.093220	-0.538462	0.000000 
-1.093220	-0.487179	0.000000 
-1.093220	-0.435897	0.000000 
-1.093220	-0.384615	0.000000 
-1.093220	-0.333333	0.000000 
-1.093220	-0.282051	0.000000 
-1.093220	-0.230769	0.000000 
-1.093220	-0.179487	0.000000 
-1.093220	-0.128205	0.000000 
-1.093220	-0.076923	0.000000 
-1.093220	-0.025641	0.000000 
-1.093220	0.025641	0.000000 
-1.093220	0.076923	0.000000 
-1.093220	0.128205	0.000000 
-1.093220	0.179487	0.000000 
-1.093220	0.230769	0.000000 
-1.093220	0.282051	0.000000 
-1.093220	0.333333	0.000000 
-1.093220	0.384615	0.000000 
-1.093220	0.435897	0.000000 
-1.093220	0.487180	0.000000 
-1.093220	0.538462	0.000000 
-1.093220	0.589744	0.000000 
-1.093220	0.641026	0.000000 
-1.093220	0.692308	0.000000 
-1.093220	0.743590	0.000000 
-1.093220	0.794872	0.000000 
-1.093220	0.846154	0.000000 
-1.093220	0.897436	0.000000 
-1.093220	0.948718	0.000000 
-1.093220	1.000000	0.000000 
-1.042373	-1.000000	0.000000 
-1.042373	-0.948718	0.000000 
-1.042373	-0.897436	0.000000 
-1.042373	-0.846154	0.000000 
-1.042373	-0.794872	0.000000 
-1.042373	-0.743590	0.000000 
-1.042373	-0.692308	0.000000 
-1.042373	-0.641026	0.000000 
-1.042373	-0.589744	0.000000 
-1.042373	-0.538462	0.000000 
-1.042373	-0.487179	0.000000 
-1.042373	-0.435897	0.000000 
-1.042373	-0.384615	0.000000 
-1.042373	-0.333333	0.000000 
-1.042373	-0.282051	0.000000 
-1.042373	-0.230769	0.000000 
-1.042373	-0.179487	0.000000 
-1.042373	-0.128205	0.000000 
-1.042373	-0.076923	0.000000 
-1.042373	-0.025641	0.000000 
-1.042373	0.025641	0.000000 
-1.042373	0.076923	0.000000 
-1.042373	0.128205	0.000000 
-1.042373	0.179487	0.000000 
-1.042373	0.230769	0.000000 
-1.042373	0.282051	0.000000 
-1.042373	0.333333	0.000000 
-1.042373	0.384615	0.000000 
-1.042373	0.435897	0.000000 
-1.042373	0.487180	0.000000 
-1.042373	0.538462	0.000000 
-1.042373	0.589744	0.000000 
-1.042373	0.641026	0.000000 
-1.042373	0.692308	0.000000 
-1.042373	0.743590	0.000000 
-1.042373	0.794872	0.000000 
-1.042373	0.846154	0.000000 
-1.042373	0.897436	0.000000 
-1.042373	0.948718	0.000000 
-1.042373	1.000000	0.000000 
-0.991525	-1.000000	0.000000 
-0.991525	-0.948718	0.000000 
-0.991525	-0.897436	0.000000 
-0.991525	-0.846154	0.000000 
-0.991525	-0.794872	0.000000 
-0.991525	-0.743590	0.000000 
-0.991525	-0.692308	0.000000 
-0.991525	-0.641026	0.000000 
-0.991525	-0.589744	0.000000 
-0.991525	-0.538462	0.000000 
-0.991525	-0.487179	0.000000 
-0.991525	-0.435897	0.000000 
-0.991525	-0.384615	0.000000 
-0.991525	-0.333333	0.000000 
-0.991525	-0.282051	0.000000 
-0.991525	-0.230769	0.000000 
-0.991525	-0.179487	0.000000 
-0.991525	-0.128205	0.000000 
-0.991525	-0.076923	0.000000 
-0.991525	-0.025641	0.000000 
-0.991525	0.025641	0.000000 
-0.991525	0.076923	0.000000 
-0.991525	0.128205	0.000000 
-0.991525	0.179487	0.000000 
-0.991525	0.230769	0.000000 
-0.991525	0.282051	0.000000 
-0.991525	0.333333	0.000000 
-0.991525	0.384615	0.000000 
-0.991525	0.435897	0.000000 
-0.991525	0.487180	0.000000 
-0.991525	0.538462	0.000000 
-0.991525	0.589744	0.000000 
-0.991525	0.641026	0.000000 
-0.991525	0.692308	0.000000 
-0.991525	0.743590	0.000000 
-0.991525	0.794872	0.000000 
-0.991525	0.846154	0.000000 
-0.991525	0.897436	0.000000 
-0.991525	0.948718	0.000000 
-0.991525	1.000000	0.000000 
-0.940678	-1.000000	0.000000 
-0.940678	-0.948718	0.000000 
-0.940678	-0.897436	0.000000 
-0.940678	-0.846154	0.000000 
-0.940678	-0.794872	0.000000 
-0.940678	-0.743590	0.000000 
-0.940678	-0.692308	0.000000 
-0.940678	-0.641026	0.000000 
-0.940678	-0.589744	0.000000 
-0.940678	-0.538462	0.000000 
-0.940678	-0.487179	0.000000 
-0.940678	-0.435897	0.000000 
-0.940678	-0.384615	0.000000 
-0.940678	-0.333333	0.000000 
-0.940678	-0.282051	0.000000 
-0.940678	-0.230769	0.000000 
-0.940678	-0.179487	0.000000 
-0.940678	-0.128205	0.000000 
-0.940678	-0.076923	0.000000 
-0.940678	-0.025641	0.000000 
-0.940678	0.025641	0.000000 
-0.940678	0.076923	0.000000 
-0.940678	0.128205	0.000000 
-0.940678	0.179487	0.000000 
-0.940678	0.230769	0.000000 
-0.940678	0.282051	0.000000 
-0.940678	0.333333	0.000000 
-0.940678	0.384615	0.000000 
-0.940678	0.435897	0.000000 
-0.940678	0.487180	0.000000 
-0.940678	0.538462	0.000000 
-0.940678	0.589744	0.000000 
-0.940678	0.641026	0.000000 
-0.940678	0.692308	0.000000 
-0.940678	0.743590	0.000000 
-0.940678	0.794872	0.000000 
-0.940678	0.846154	0.000000 
-0.940678	0.897436	0.000000 
-0.940678	0.948718	0.000000 
-0.940678	1.000000	0.000000 
-0.889831	-1.000000	0.000000 
-0.889831	-0.948718	0.000000 
-0.889831	-0.897436	0.000000 
-0.889831	-0.846154	0.000000 
-0.889831	-0.794872	0.000000 
-0.889831	-0.743590	0.000000 
-0.889831	-0.692308	0.000000 
-0.889831	-0.641026	0.000000 
-0.889831	-0.589744	0.000000 
-0.889831	-0.538462	0.000000 
-0.889831	-0.487179	0.000000 
-0.889831	-0.435897	0.000000 
-0.889831	-0.384615	0.000000 
-0.889831	-0.333333	0.000000 
-0.889831	-0.282051	0.000000 
-0.889831	-0.230769	0.000000 
-0.889831	-0.179487	0.000000 
-0.889831	-0.128205	0.000000 
-0.889831	-0.076923	0.000000 
-0.889831	-0.025641	0.000000 
-0.889831	0.025641	0.000000 
-0.889831	0.076923	0.000000 
-0.889831	0.128205	0.000000 
-0.889831	0.179487	0.000000 
-0.889831	0.230769	0.000000 
-0.889831	0.282051	0.000000 
-0.889831	0.333333	0.000000 
-0.889831	0.384615	0.000000 
-0.889831	0.435897	0.000000 
-0.889831	0.487180	0.000000 
-0.889831	0.538462	0.000000 
-0.889831	0.589744	0.000000 
-0.889831	0.641026	0.000000 
-0.889831	0.692308	0.000000 
-0.889831	0.743590	0.000000 
-0.889831	0.794872	0.000000 
-0.889831	0.846154	0.000000 
-0.889831	0.897436	0.000000 
-0.889831	0.948718	0.000000 
-0.889831	1.000000	0.000000 
-0.838983	-1.000000	0.000000 
-0.838983	-0.948718	0.000000 
-0.838983	-0.897436	0.000000 
-0.838983	-0.846154	0.000000 
-0.838983	-0.794872	0.000000 
-0.838983	-0.743590	0.000000 
-0.838983	-0.692308	0.000000 
-0.838983	-0.641026	0.000000 
-0.838983	-0.589744	0.000000 
-0.838983	-0.538462	0.000000 
-0.838983	-0.487179	0.000000 
-0.838983	-0.435897	0.000000 
-0.838983	-0.384615	0.000000 
-0.838983	-0.333333	0.000000 
-0.838983	-0.282051	0.000000 
-0.838983	-0.230769	0.000000 
-0.838983	-0.179487	0.000000 
-0.838983	-0.128205	0.000000 
-0.838983	-0.076923	0.000000 
-0.838983	-0.025641	0.000000 
-0.838983	0.025641	0.000000 
-0.838983	0.076923	0.000000 
-0.838983	0.128205	0.000000 
-0.838983	0.179487	0.000000 
-0.838983	0.230769	0.000000 
-0.838983	0.282051	0.000000 
-0.838983	0.333333	0.000000 
-0.838983	0.384615	0.000000 
-0.838983	0.435897	0.000000 
-0.838983	0.487180	0.000000 
-0.838983	0.538462	0.000000 
-0.838983	0.589744	0.000000 
-0.838983	0.641026	0.000000 
-0.838983	0.692308	0.000000 
-0.838983	0.743590	0.000000 
-0.838983	0.794872	0.000000 
-0.838983	0.846154	0.000000 
-0.838983	0.897436	0.000000 
-0.838983	0.948718	0.000000 
-0.838983	1.000000	0.000000 
-0.788136	-1.000000	0.000000 
-0.788136	-0.948718	0.000000 
-0.788136	-0.897436	0.000000 
-0.788136	-0.846154	0.000000 
-0.788136	-0.794872	0.000000 
-0.788136	-0.743590	0.000000 
-0.788136	-0.692308	0.000000 
-0.788136	-0.641026	0.000000 
-0.788136	-0.589744	0.000000 
-0.788136	-0.538462	0.000000 
-0.788136	-0.487179	0.000000 
-0.788136	-0.435897	0.000000 
-0.788136	-0.384615	0.000000 
-0.788136	-0.333333	0.000000 
-0.788136	-0.282051	0.000000 
-0.788136	-0.230769	0.000000 
-0.788136	-0.179487	0.000000 
-0.788136	-0.128205	0.000000 
-0.788136	-0.076923	0.000000 
-0.788136	-0.025641	0.000000 
-0.788136	0.025641	0.000000 
-0.788136	0.076923	0.000000 
-0.788136	0.128205	0.000000 
-0.788136	0.179487	0.000000 
-0.788136	0.230769	0.000000 
-0.788136	0.282051	0.000000 
-0.788136	0.333333	0.000000 
-0.788136	0.384615	0.000000 
-0.788136	0.435897	0.000000 
-0.788136	0.487180	0.000000 
-0.788136	0.538462	0.000000 
-0.788136	0.589744	0.000000 
-0.788136	0.641026	0.000000 
-0.788136	0.692308	0.000000 
-0.788136	0.743590	0.000000 
-0.788136	0.794872	0.000000 
-0.788136	0.846154	0.000000 
-0.788136	0.897436	0.000000 
-0.788136	0.948718	0.000000 
-0.788136	1.000000	0.000000 
-0.737288	-1.000000	0.000000 
-0.737288	-0.948718	0.000000 
-0.737288	-0.897436	0.000000 
-0.737288	-0.846154	0.000000 
-0.737288	-0.794872	0.000000 
-0.737288	-0.743590	0.000000 
-0.737288	-0.692308	0.000000 
-0.737288	-0.641026	0.000000 
-0.737288	-0.589744	0.000000 
-0.737288	-0.538462	0.000000 
-0.737288	-0.487179	0.000000 
-0.737288	-0.435897	0.000000 
-0.737288	-0.384615	0.000000 
-0.737288	-0.333333	0.000000 
-0.737288	-0.282051	0.000000 
-0.737288	-0.230769	0.000000 
-0.737288	-0.179487	0.000000 
-0.737288	-0.128205	0.000000 
-0.737288	-0.076923	0.000000 
-0.737288	-0.025641	0.000000 
-0.737288	0.025641	0.000000 
-0.737288	0.076923	0.000000 
-0.737288	0.128205	0.000000 
-0.737288	0.179487	0.000000 
-0.737288	0.230769	0.000000 
-0.737288	0.282051	0.000000 
-0.737288	0.333333	0.000000 
-0.737288	0.384615	0.000000 
-0.737288	0.435897	0.000000 
-0.737288	0.487180	0.000000 
-0.737288	0.538462	0.000000 
-0.737288	0.589744	0.000000 
-0.737288	0.641026	0.000000 
-0.737288	0.692308	0.000000 
-0.737288	0.743590	0.000000 
-0.737288	0.794872	0.000000 
-0.737288	0.846154	0.000000 
-0.737288	0.897436	0.000000 
-0.737288	0.948718	0.000000 
-0.737288	1.000000	0.000000 
-0.686441	-1.000000	0.000000 
-0.686441	-0.948718	0.000000 
-0.686441	-0.897436	0.000000 
-0.686441	-0.846154	0.000000 
-0.686441	-0.794872	0.000000 
-0.686441	-0.743590	0.000000 
-0.686441	-0.692308	0.000000 
-0.686441	-0.641026	0.000000 
-0.686441	-0.589744	0.000000 
-0.686441	-0.538462	0.000000 
-0.686441	-0.487179	0.000000 
-0.686441	-0.435897	0.000000 
-0.686441	-0.384615	0.000000 
-0.686441	-0.333333	0.000000 
-0.686441	-0.282051	0.000000 
-0.686441	-0.230769	0.000000 
-0.686441	-0.179487	0.000000 
-0.686441	-0.128205	0.000000 
-0.686441	-0.076923	0.000000 
-0.686441	-0.025641	0.000000 
-0.686441	0.025641	0.000000 
-0.686441	0.076923	0.000000 
-0.686441	0.128205	0.000000 
-0.686441	0.179487	0.000000 
-0.686441	0.230769	0.000000 
-0.686441	0.282051	0.000000 
-0.686441	0.333333	0.000000 
-0.686441	0.384615	0.000000 
-0.686441	0.435897	0.000000 
-0.686441	0.487180	0.000000 
-0.686441	0.538462	0.000000 
-0.686441	0.589744	0.000000 
-0.686441	0.641026	0.000000 
-0.686441	0.692308	0.000000 
-0.686441	0.743590	0.000000 
-0.686441	0.794872	0.000000 
-0.686441	0.846154	0.000000 
-0.686441	0.897436	0.000000 
-0.686441	0.948718	0.000000 
-0.686441	1.000000	0.000000 
-0.635593	-1.000000	0.000000 
-0.635593	-0.948718	0.000000 
-0.635593	-0.897436	0.000000 
-0.635593	-0.846154	0.000000 
-0.635593	-0.794872	0.000000 
-0.635593	-0.743590	0.000000 
-0.635593	-0.692308	0.000000 
-0.635593	-0.641026	0.000000 
-0.635593	-0.589744	0.000000 
-0.635593	-0.538462	0.000000 
-0.635593	-0.487179	0.000000 
-0.635593	-0.435897	0.000000 
-0.635593	-0.384615	0.000000 
-0.635593	-0.333333	0.000000 
-0.635593	-0.282051	0.000000 
-0.635593	-0.230769	0.000000 
-0.635593	-0.179487	0.000000 
-0.635593	-0.128205	0.000000 
-0.635593	-0.076923	0.000000 
-0.635593	-0.025641	0.000000 
-0.635593	0.025641	0.000000 
-0.635593	0.076923	0.000000 
-0.635593	0.128205	0.000000 
-0.635593	0.179487	0.000000 
-0.635593	0.230769	0.000000 
-0.635593	0.282051	0.000000 
-0.635593	0.333333	0.000000 
-0.635593	0.384615	0.000000 
-0.635593	0.435897	0.000000 
-0.635593	0.487180	0.000000 
-0.635593	0.538462	0.000000 
-0.635593	0.589744	0.000000 
-0.635593	0.641026	0.000000 
-0.635593	0.692308	0.000000 
-0.635593	0.743590	0.000000 
-0.635593	0.794872	0.000000 
-0.635593	0.846154	0.000000 
-0.635593	0.897436	0.000000 
-0.635593	0.948718	0.000000 
-0.635593	1.000000	0.000000 
-0.584746	-1.000000	0.000000 
-0.584746	-0.948718	0.000000 
-0.584746	-0.897436	0.000000 
-0.584746	-0.846154	0.000000 
-0.584746	-0.794872	0.000000 
-0.584746	-0.743590	0.000000 
-0.584746	-0.692308	0.000000 
-0.584746	-0.641026	0.000000 
-0.584746	-0.589744	0.000000 
-0.584746	-0.538462	0.000000 
-0.584746	-0.487179	0.000000 
-0.584746	-0.435897	0.000000 
-0.584746	-0.384615	0.000000 
-0.584746	-0.333333	0.000000 
-0.584746	-0.282051	0.000000 
-0.584746	-0.230769	0.000000 
-0.584746	-0.179487	0.000000 
-0.584746	-0.128205	0.000000 
-0.584746	-0.076923	0.000000 
-0.584746	-0.025641	0.000000 
-0.584746	0.025641	0.000000 
-0.584746	0.076923	0.000000 
-0.584746	0.128205	0.000000 
-0.584746	0.179487	0.000000 
-0.584746	0.230769	0.000000 
-0.584746	0.282051	0.000000 
-0.584746	0.333333	0.000000 
-0.584746	0.384615	0.000000 
-0.584746	0.435897	0.000000 
-0.584746	0.487180	0.000000 
-0.584746	0.538462	0.000000 
-0.584746	0.589744	0.000000 
-0.584746	0.641026	0.000000 
-0.584746	0.692308	0.000000 
-0.584746	0.743590	0.000000 
-0.584746	0.794872	0.000000 
-0.584746	0.846154	0.000000 
-0.584746	0.897436	0.000000 
-0.584746	0.948718	0.000000 
-0.584746	1.000000	0.000000 
-0.533898	-1.000000	0.000000 
-0.533898	-0.948718	0.000000 
-0.533898	-0.897436	0.000000 
-0.533898	-0.846154	0.000000 
-0.533898	-0.794872	0.000000 
-0.533898	-0.743590	0.000000 
-0.533898	-0.692308	0.000000 
-0.533898	-0.641026	0.000000 
-0.533898	-0.589744	0.000000 
-0.533898	-0.538462	0.000000 
-0.533898	-0.487179	0.000000 
-0.533898	-0.435897	0.000000 
-0.533898	-0.384615	0.000000 
-0.533898	-0.333333	0.000000 
-0.533898	-0.282051	0.000000 
-0.533898	-0.230769	0.000000 
-0.533898	-0.179487	0.000000 
-0.533898	-0.128205	0.000000 
-0.533898	-0.076923	0.000000 
-0.533898	-0.025641	0.000000 
-0.533898	0.025641	0.000000 
-0.533898	0.076923	0.000000 
-0.533898	0.128205	0.000000 
-0.533898	0.179487	0.000000 
-0.533898	0.230769	0.000000 
-0.533898	0.282051	0.000000 
-0.533898	0.333333	0.000000 
-0.533898	0.384615	0.000000 
-0.533898	0.435897	0.000000 
-0.533898	0.487180	0.000000 
-0.533898	0.538462	0.000000 
-0.533898	0.589744	0.000000 
-0.533898	0.641026	0.000000 
-0.533898	0.692308	0.000000 
-0.533898	0.743590	0.000000 
-0.533898	0.794872	0.000000 
-0.533898	0.846154	0.000000 
-0.533898	0.897436	0.000000 
-0.533898	0.948718	0.000000 
-0.533898	1.000000	0.000000 
-0.483051	-1.000000	0.000000 
-0.483051	-0.948718	0.000000 
-0.483051	-0.897436	0.000000 
-0.483051	-0.846154	0.000000 
-0.483051	-0.794872	0.000000 
-0.483051	-0.743590	0.000000 
-0.483051	-0.692308	0.000000 
-0.483051	-0.641026	0.000000 
-0.483051	-0.589744	0.000000 
-0.483051	-0.538462	0.000000 
-0.483051	-0.487179	0.000000 
-0.483051	-0.435897	0.000000 
-0.483051	-0.384615	0.000000 
-0.483051	-0.333333	0.000000 
-0.483051	-0.282051	0.000000 
-0.483051	-0.230769	0.000000 
-0.483051	-0.179487	0.000000 
-0.483051	-0.128205	0.000000 
-0.483051	-0.076923	0.000000 
-0.483051	-0.025641	0.000000 
-0.483051	0.025641	0.000000 
-0.483051	0.076923	0.000000 
-0.483051	0.128205	0.000000 
-0.483051	0.179487	0.000000 
-0.483051	0.230769	0.000000 
-0.483051	0.282051	0.000000 
-0.483051	0.333333	0.000000 
-0.483051	0.384615	0.000000 
-0.483051	0.435897	0.000000 
-0.483051	0.487180	0.000000 
-0.483051	0.538462	0.000000 
-0.483051	0.589744	0.000000 
-0.483051	0.641026	0.000000 
-0.483051	0.692308	0.000000 
-0.483051	0.743590	0.000000 
-0.483051	0.794872	0.000000 
-0.483051	0.846154	0.000000 
-0.483051	0.897436	0.000000 
-0.483051	0.948718	0.000000 
-0.483051	1.000000	0.000000 
-0.432203	-1.000000	0.000000 
-0.432203	-0.948718	0.000000 
-0.432203	-0.897436	0.000000 
-0.432203	-0.846154	0.000000 
-0.432203	-0.794872	0.000000 
-0.432203	-0.743590	0.000000 
-0.432203	-0.692308	0.000000 
-0.432203	-0.641026	0.000000 
-0.432203	-0.589744	0.000000 
-0.432203	-0.538462	0.000000 
-0.432203	-0.487179	0.000000 
-0.432203	-0.435897	0.000000 
-0.432203	-0.384615	0.000000 
-0.432203	-0.333333	0.000000 
-0.432203	-0.282051	0.000000 
-0.432203	-0.230769	0.000000 
-0.432203	-0.179487	0.000000 
-0.432203	-0.128205	0.000000 
-0.432203	-0.076923	0.000000 
-0.432203	-0.025641	0.000000 
-0.432203	0.025641	0.000000 
-0.432203	0.076923	0.000000 
-0.432203	0.128205	0.000000 
-0.432203	0.179487	0.000000 
-0.432203	0.230769	0.000000 
-0.432203	0.282051	0.000000 
-0.432203	0.333333	0.000000 
-0.432203	0.384615	0.000000 
-0.432203	0.435897	0.000000 
-0.432203	0.487180	0.000000 
-0.432203	0.538462	0.000000 
-0.432203	0.589744	0.000000 
-0.432203	0.641026	0.000000 
-0.432203	0.692308	0.000000 
-0.432203	0.743590	0.000000 
-0.432203	0.794872	0.000000 
-0.432203	0.846154	0.000000 
-0.432203	0.897436	0.000000 
-0.432203	0.948718	0.000000 
-0.432203	1.000000	0.000000 
-0.381356	-1.000000	0.000000 
-0.381356	-0.948718	0.000000 
-0.381356	-0.897436	0.000000 
-0.381356	-0.846154	0.000000 
-0.381356	-0.794872	0.000000 
-0.381356	-0.743590	0.000000 
-0.381356	-0.692308	0.000000 
-0.381356	-0.641026	0.000000 
-0.381356	-0.589744	0.000000 
-0.381356	-0.538462	0.000000 
-0.381356	-0.487179	0.000000 
-0.381356	-0.435897	0.000000 
-0.381356	-0.384615	0.000000 
-0.381356	-0.333333	0.000000 
-0.381356	-0.282051	0.000000 
-0.381356	-0.230769	0.000000 
-0.381356	-0.179487	0.000000 
-0.381356	-0.128205	0.000000 
-0.381356	-0.076923	0.000000 
-0.381356	-0.025641	0.000000 
-0.381356	0.025641	0.000000 
-0.381356	0.076923	0.000000 
-0.381356	0.128205	0.000000 
-0.381356	0.179487	0.000000 
-0.381356	0.230769	0.000000 
-0.381356	0.282051	0.000000 
-0.381356	0.333333	0.000000 
-0.381356	0.384615	0.000000 
-0.381356	0.435897	0.000000 
-0.381356	0.487180	0.000000 
-0.381356	0.538462	0.000000 
-0.381356	0.589744	0.000000 
-0.381356	0.641026	0.000000 
-0.381356	0.692308	0.000000 
-0.381356	0.743590	0.000000 
-0.381356	0.794872	0.000000 
-0.381356	0.846154	0.000000 
-0.381356	0.897436	0.000000 
-0.381356	0.948718	0.000000 
-0.381356	1.000000	0.000000 
-0.330508	-1.000000	0.000000 
-0.330508	-0.948718	0.000000 
-0.330508	-0.897436	0.000000 
-0.330508	-0.846154	0.000000 
-0.330508	-0.794872	0.000000 
-0.330508	-0.743590	0.000000 
-0.330508	-0.692308	0.000000 
-0.330508	-0.641026	0.000000 
-0.330508	-0.589744	0.000000 
-0.330508	-0.538462	0.000000 
-0.330508	-0.487179	0.000000 
-0.330508	-0.435897	0.000000 
-0.330508	-0.384615	0.000000 
-0.330508	-0.333333	0.000000 
-0.330508	-0.282051	0.000000 
-0.330508	-0.230769	0.000000 
-0.330508	-0.179487	0.000000 
-0.330508	-0.128205	0.000000 
-0.330508	-0.076923	0.000000 
-0.330508	-0.025641	0.000000 
-0.330508	0.025641	0.000000 
-0.330508	0.076923	0.000000 
-0.330508	0.128205	0.000000 
-0.330508	0.179487	0.000000 
-0.330508	0.230769	0.000000 
-0.330508	0.282051	0.000000 
-0.330508	0.333333	0.000000 
-0.330508	0.384615	0.000000 
-0.330508	0.435897	0.000000 
-0.330508	0.487180	0.000000 
-0.330508	0.538462	0.000000 
-0.330508	0.589744	0.000000 
-0.330508	0.641026	0.000000 
-0.330508	0.692308	0.000000 
-0.330508	0.743590	0.000000 
-0.330508	0.794872	0.000000 
-0.330508	0.846154	0.000000 
-0.330508	0.897436	0.000000 
-0.330508	0.948718	0.000000 
-0.330508	1.000000	0.000000 
-0.279661	-1.000000	0.000000 
-0.279661	-0.948718	0.000000 
-0.279661	-0.897436	0.000000 
-0.279661	-0.846154	0.000000 
-0.279661	-0.794872	0.000000 
-0.279661	-0.743590	0.000000 
-0.279661	-0.692308	0.000000 
-0.279661	-0.641026	0.000000 
-0.279661	-0.589744	0.000000 
-0.279661	-0.538462	0.000000 
-0.279661	-0.487179	0.000000 
-0.279661	-0.435897	0.000000 
-0.279661	-0.384615	0.000000 
-0.279661	-0.333333	0.000000 
-0.279661	-0.282051	0.000000 
-0.279661	-0.230769	0.000000 
-0.279661	-0.179487	0.000000 
-0.279661	-0.128205	0.000000 
-0.279661	-0.076923	0.000000 
-0.279661	-0.025641	0.000000 
-0.279661	0.025641	0.000000 
-0.279661	0.076923	0.000000 
-0.279661	0.128205	0.000000 
-0.279661	0.179487	0.000000 
-0.279661	0.230769	0.000000 
-0.279661	0.282051	0.000000 
-0.279661	0.333333	0.000000 
-0.279661	0.384615	0.000000 
-0.279661	0.435897	0.000000 
-0.279661	0.487180	0.000000 
-0.279661	0.538462	0.000000 
-0.279661	0.589744	0.000000 
-0.279661	0.641026	0.000000 
-0.279661	0.692308	0.000000 
-0.279661	0.743590	0.000000 
-0.279661	0.794872	0.000000 
-0.279661	0.846154	0.000000 
-0.279661	0.897436	0.000000 
-0.279661	0.948718	0.000000 
-0.279661	1.000000	0.000000 
-0.228814	-1.000000	0.000000 
-0.228814	-0.948718	0.000000 
-0.228814	-0.897436	0.000000 
-0.228814	-0.846154	0.000000 
-0.228814	-0.794872	0.000000 
-0.228814	-0.743590	0.000000 
-0.228814	-0.692308	0.000000 
-0.228814	-0.641026	0.000000 
-0.228814	-0.589744	0.000000 
-0.228814	-0.538462	0.000000 
-0.228814	-0.487179	0.000000 
-0.228814	-0.435897	0.000000 
-0.228814	-0.384615	0.000000 
-0.228814	-0.333333	0.000000 
-0.228814	-0.282051	0.000000 
-0.228814	-0.230769	0.000000 
-0.228814	-0.179487	0.000000 
-0.228814	-0.128205	0.000000 
-0.228814	-0.076923	0.000000 
-0.228814	-0.025641	0.000000 
-0.228814	0.025641	0.000000 
-0.228814	0.076923	0.000000 
-0.228814	0.128205	0.000000 
-0.228814	0.179487	0.000000 
-0.228814	0.230769	0.000000 
-0.228814	0.282051	0.000000 
-0.228814	0.333333	0.000000 
-0.228814	0.384615	0.000000 
-0.228814	0.435897	0.000000 
-0.228814	0.487180	0.000000 
-0.228814	0.538462	0.000000 
-0.228814	0.589744	0.000000 
-0.228814	0.641026	0.000000 
-0.228814	0.692308	0.000000 
-0.228814	0.743590	0.000000 
-0.228814	0.794872	0.000000 
-0.228814	0.846154	0.000000 
-0.228814	0.897436	0.000000 
-0.228814	0.948718	0.000000 
-0.228814	1.000000	0.000000 
-0.177966	-1.000000	0.000000 
-0.177966	-0.948718	0.000000 
-0.177966	-0.897436	0.000000 
-0.177966	-0.846154	0.000000 
-0.177966	-0.794872	0.000000 
-0.177966	-0.743590	0.000000 
-0.177966	-0.692308	0.000000 
-0.177966	-0.641026	0.000000 
-0.177966	-0.589744	0.000000 
-0.177966	-0.538462	0.000000 
-0.177966	-0.487179	0.000000 
-0.177966	-0.435897	0.000000 
-0.177966	-0.384615	0.000000 
-0.177966	-0.333333	0.000000 
-0.177966	-0.282051	0.000000 
-0.177966	-0.230769	0.000000 
-0.177966	-0.179487	0.000000 
-0.177966	-0.128205	0.000000 
-0.177966	-0.076923	0.000000 
-0.177966	-0.025641	0.000000 
-0.177966	0.025641	0.000000 
-0.177966	0.076923	0.000000 
-0.177966	0.128205	0.000000 
-0.177966	0.179487	0.000000 
-0.177966	0.230769	0.000000 
-0.177966	0.282051	0.000000 
-0.177966	0.333333	0.000000 
-0.177966	0.384615	0.000000 
-0.177966	0.435897	0.000000 
-0.177966	0.487180	0.000000 
-0.177966	0.538462	0.000000 
-0.177966	0.589744	0.000000 
-0.177966	0.641026	0.000000 
-0.177966	0.692308	0.000000 
-0.177966	0.743590	0.000000 
-0.177966	0.794872	0.000000 
-0.177966	0.846154	0.000000 
-0.177966	0.897436	0.000000 
-0.177966	0.948718	0.000000 
-0.177966	1.000000	0.000000 
-0.127119	-1.000000	0.000000 
-0.127119	-0.948718	0.000000 
-0.127119	-0.897436	0.000000 
-0.127119	-0.846154	0.000000 
-0.127119	-0.794872	0.000000 
-0.127119	-0.743590	0.000000 
-0.127119	-0.692308	0.000000 
-0.127119	-0.641026	0.000000 
-0.127119	-0.589744	0.000000 
-0.127119	-0.538462	0.000000 
-0.127119	-0.487179	0.000000 
-0.127119	-0.435897	0.000000 
-0.127119	-0.384615	0.000000 
-0.127119	-0.333333	0.000000 
-0.127119	-0.282051	0.000000 
-0.127119	-0.230769	0.000000 
-0.127119	-0.179487	0.000000 
-0.127119	-0.128205	0.000000 
-0.127119	-0.076923	0.000000 
-0.127119	-0.025641	0.000000 
-0.127119	0.025641	0.000000 
-0.127119	0.076923	0.000000 
-0.127119	0.128205	0.000000 
-0.127119	0.179487	0.000000 
-0.127119	0.230769	0.000000 
-0.127119	0.282051	0.000000 
-0.127119	0.333333	0.000000 
-0.127119	0.384615	0.000000 
-0.127119	0.435897	0.000000 
-0.127119	0.487180	0.000000 
-0.127119	0.538462	0.000000 
-0.127119	0.589744	0.000000 
-0.127119	0.641026	0.000000 
-0.127119	0.692308	0.000000 
-0.127119	0.743590	0.000000 
-0.127119	0.794872	0.000000 
-0.127119	0.846154	0.000000 
-0.127119	0.897436	0.000000 
-0.127119	0.948718	0.000000 
-0.127119	1.000000	0.000000 
-0.076271	-1.000000	0.000000 
-0.076271	-0.948718	0.000000 
-0.076271	-0.897436	0.000000 
-0.076271	-0.846154	0.000000 
-0.076271	-0.794872	0.000000 
-0.076271	-0.743590	0.000000 
-0.076271	-0.692308	0.000000 
-0.076271	-0.641026	0.000000 
-0.076271	-0.589744	0.000000 
-0.076271	-0.538462	0.000000 
-0.076271	-0.487179	0.000000 
-0.076271	-0.435897	0.000000 
-0.076271	-0.384615	0.000000 
-0.076271	-0.333333	0.000000 
-0.076271	-0.282051	0.000000 
-0.076271	-0.230769	0.000000 
-0.076271	-0.179487	0.000000 
-0.076271	-0.128205	0.000000 
-0.076271	-0.076923	0.000000 
-0.076271	-0.025641	0.000000 
-0.076271	0.025641	0.000000 
-0.076271	0.076923	0.000000 
-0.076271	0.128205	0.000000 
-0.076271	0.179487	0.000000 
-0.076271	0.230769	0.000000 
-0.076271	0.282051	0.000000 
-0.076271	0.333333	0.000000 
-0.076271	0.384615	0.000000 
-0.076271	0.435897	0.000000 
-0.076271	0.487180	0.000000 
-0.076271	0.538462	0.000000 
-0.076271	0.589744	0.000000 
-0.076271	0.641026	0.000000 
-0.076271	0.692308	0.000000 
-0.076271	0.743590	0.000000 
-0.076271	0.794872	0.000000 
-0.076271	0.846154	0.000000 
-0.076271	0.897436	0.000000 
-0.076271	0.948718	0.000000 
-0.076271	1.000000	0.000000 
-0.025424	-1.000000	0.000000 
-0.025424	-0.948718	0.000000 
-0.025424	-0.897436	0.000000 
-0.025424	-0.846154	0.000000 
-0.025424	-0.794872	0.000000 
-0.025424	-0.743590	0.000000 
-0.025424	-0.692308	0.000000 
-0.025424	-0.641026	0.000000 
-0.025424	-0.589744	0.000000 
-0.025424	-0.538462	0.000000 
-0.025424	-0.487179	0.000000 
-0.025424	-0.435897	0.000000 
-0.025424	-0.384615	0.000000 
-0.025424	-0.333333	0.000000 
-0.025424	-0.282051	0.000000 
-0.025424	-0.230769	0.000000 
-0.025424	-0.179487	0.000000 
-0.025424	-0.128205	0.000000 
-0.025424	-0.076923	0.000000 
-0.025424	-0.025641	0.000000 
-0.025424	0.025641	0.000000 
-0.025424	0.076923	0.000000 
-0.025424	0.128205	0.000000 
-0.025424	0.179487	0.000000 
-0.025424	0.230769	0.000000 
-0.025424	0.282051	0.000000 
-0.025424	0.333333	0.000000 
-0.025424	0.384615	0.000000 
-0.025424	0.435897	0.000000 
-0.025424	0.487180	0.000000 
-0.025424	0.538462	0.000000 
-0.025424	0.589744	0.000000 
-0.025424	0.641026	0.000000 
-0.025424	0.692308	0.000000 
-0.025424	0.743590	0.000000 
-0.025424	0.794872	0.000000 
-0.025424	0.846154	0.000000 
-0.025424	0.897436	0.000000 
-0.025424	0.948718	0.000000 
-0.025424	1.000000	0.000000 
0.025424	-1.000000	0.000000 
0.025424	-0.948718	0.000000 
0.025424	-0.897436	0.000000 
0.025424	-0.846154	0.000000 
0.025424	-0.794872	0.000000 
0.025424	-0.743590	0.000000 
0.025424	-0.692308	0.000000 
0.025424	-0.641026	0.000000 
0.025424	-0.589744	0.000000 
0.025424	-0.538462	0.000000 
0.025424	-0.487179	0.000000 
0.025424	-0.435897	0.000000 
0.025424	-0.384615	0.000000 
0.025424	-0.333333	0.000000 
0.025424	-0.282051	0.000000 
0.025424	-0.230769	0.000000 
0.025424	-0.179487	0.000000 
0.025424	-0.128205	0.000000 
0.025424	-0.076923	0.000000 
0.025424	-0.025641	0.000000 
0.025424	0.025641	0.000000 
0.025424	0.076923	0.000000 
0.025424	0.128205	0.000000 
0.025424	0.179487	0.000000 
0.025424	0.230769	0.000000 
0.025424	0.282051	0.000000 
0.025424	0.333333	0.000000 
0.025424	0.384615	0.000000 
0.025424	0.435897	0.000000 
0.025424	0.487180	0.000000 
0.025424	0.538462	0.000000 
0.025424	0.589744	0.000000 
0.025424	0.641026	0.000000 
0.025424	0.692308	0.000000 
0.025424	0.743590	0.000000 
0.025424	0.794872	0.000000 
0.025424	0.846154	0.000000 
0.025424	0.897436	0.000000 
0.025424	0.948718	0.000000 
0.025424	1.000000	0.000000 
0.076271	-1.000000	0.000000 
0.076271	-0.948718	0.000000 
0.076271	-0.897436	0.000000 
0.076271	-0.846154	0.000000 
0.076271	-0.794872	0.000000 
0.076271	-0.743590	0.000000 
0.076271	-0.692308	0.000000 
0.076271	-0.641026	0.000000 
0.076271	-0.589744	0.000000 
0.076271	-0.538462	0.000000 
0.076271	-0.487179	0.000000 
0.076271	-0.435897	0.000000 
0.076271	-0.384615	0.000000 
0.076271	-0.333333	0.000000 
0.076271	-0.282051	0.000000 
0.076271	-0.230769	0.000000 
0.076271	-0.179487	0.000000 
0.076271	-0.128205	0.000000 
0.076271	-0.076923	0.000000 
0.076271	-0.025641	0.000000 
0.076271	0.025641	0.000000 
0.076271	0.076923	0.000000 
0.076271	0.128205	0.000000 
0.076271	0.179487	0.000000 
0.076271	0.230769	0.000000 
0.076271	0.282051	0.000000 
0.076271	0.333333	0.000000 
0.076271	0.384615	0.000000 
0.076271	0.435897	0.000000 
0.076271	0.487180	0.000000 
0.076271	0.538462	0.000000 
0.076271	0.589744	0.000000 
0.076271	0.641026	0.000000 
0.076271	0.692308	0.000000 
0.076271	0.743590	0.000000 
0.076271	0.794872	0.000000 
0.076271	0.846154	0.000000 
0.076271	0.897436	0.000000 
0.076271	0.948718	0.000000 
0.076271	1.000000	0.000000 
0.127119	-1.000000	0.000000 
0.127119	-0.948718	0.000000 
0.127119	-0.897436	0.000000 
0.127119	-0.846154	0.000000 
0.127119	-0.794872	0.000000 
0.127119	-0.743590	0.000000 
0.127119	-0.692308	0.000000 
0.127119	-0.641026	0.000000 
0.127119	-0.589744	0.000000 
0.127119	-0.538462	0.000000 
0.127119	-0.487179	0.000000 
0.127119	-0.435897	0.000000 
0.127119	-0.384615	0.000000 
0.127119	-0.333333	0.000000 
0.127119	-0.282051	0.000000 
0.127119	-0.230769	0.000000 
0.127119	-0.179487	0.000000 
0.127119	-0.128205	0.000000 
0.127119	-0.076923	0.000000 
0.127119	-0.025641	0.000000 
0.127119	0.025641	0.000000 
0.127119	0.076923	0.000000 
0.127119	0.128205	0.000000 
0.127119	0.179487	0.000000 
0.127119	0.230769	0.000000 
0.127119	0.282051	0.000000 
0.127119	0.333333	0.000000 
0.127119	0.384615	0.000000 
0.127119	0.435897	0.000000 
0.127119	0.487180	0.000000 
0.127119	0.538462	0.000000 
0.127119	0.589744	0.000000 
0.127119	0.641026	0.000000 
0.127119	0.692308	0.000000 
0.127119	0.743590	0.000000 
0.127119	0.794872	0.000000 
0.127119	0.846154	0.000000 
0.127119	0.897436	0.000000 
0.127119	0.948718	0.000000 
0.127119	1.000000	0.000000 
0.177966	-1.000000	0.000000 
0.177966	-0.948718	0.000000 
0.177966	-0.897436	0.000000 
0.177966	-0.846154	0.000000 
0.177966	-0.794872	0.000000 
0.177966	-0.743590	0.000000 
0.177966	-0.692308	0.000000 
0.177966	-0.641026	0.000000 
0.177966	-0.589744	0.000000 
0.177966	-0.538462	0.000000 
0.177966	-0.487179	0.000000 
0.177966	-0.435897	0.000000 
0.177966	-0.384615	0.000000 
0.177966	-0.333333	0.000000 
0.177966	-0.282051	0.000000 
0.177966	-0.230769	0.000000 
0.177966	-0.179487	0.000000 
0.177966	-0.128205	0.000000 
0.177966	-0.076923	0.000000 
0.177966	-0.025641	0.000000 
0.177966	0.025641	0.000000 
0.177966	0.076923	0.000000 
0.177966	0.128205	0.000000 
0.177966	0.179487	0.000000 
0.177966	0.230769	0.000000 
0.177966	0.282051	0.000000 
0.177966	0.333333	0.000000 
0.177966	0.384615	0.000000 
0.177966	0.435897	0.000000 
0.177966	0.487180	0.000000 
0.177966	0.538462	0.000000 
0.177966	0.589744	0.000000 
0.177966	0.641026	0.000000 
0.177966	0.692308	0.000000 
0.177966	0.743590	0.000000 
0.177966	0.794872	0.000000 
0.177966	0.846154	0.000000 
0.177966	0.897436	0.000000 
0.177966	0.948718	0.000000 
0.177966	1.000000	0.000000 
0.228814	-1.000000	0.000000 
0.228814	-0.948718	0.000000 
0.228814	-0.897436	0.000000 
0.228814	-0.846154	0.000000 
0.228814	-0.794872	0.000000 
0.228814	-0.743590	0.000000 
0.228814	-0.692308	0.000000 
0.228814	-0.641026	0.000000 
0.228814	-0.589744	0.000000 
0.228814	-0.538462	0.000000 
0.228814	-0.487179	0.000000 
0.228814	-0.435897	0.000000 
0.228814	-0.384615	0.000000 
0.228814	-0.333333	0.000000 
0.228814	-0.282051	0.000000 
0.228814	-0.230769	0.000000 
0.228814	-0.179487	0.000000 
0.228814	-0.128205	0.000000 
0.228814	-0.076923	0.000000 
0.228814	-0.025641	0.000000 
0.228814	0.025641	0.000000 
0.228814	0.076923	0.000000 
0.228814	0.128205	0.000000 
0.228814	0.179487	0.000000 
0.228814	0.230769	0.000000 
0.228814	0.282051	0.000000 
0.228814	0.333333	0.000000 
0.228814	0.384615	0.000000 
0.228814	0.435897	0.000000 
0.228814	0.487180	0.000000 
0.228814	0.538462	0.000000 
0.228814	0.589744	0.000000 
0.228814	0.641026	0.000000 
0.228814	0.692308	0.000000 
0.228814	0.743590	0.000000 
0.228814	0.794872	0.000000 
0.228814	0.846154	0.000000 
0.228814	0.897436	0.000000 
0.228814	0.948718	0.000000 
0.228814	1.000000	0.000000 
0.279661	-1.000000	0.000000 
0.279661	-0.948718	0.000000 
0.279661	-0.897436	0.000000 
0.279661	-0.846154	0.000000 
0.279661	-0.794872	0.000000 
0.279661	-0.743590	0.000000 
0.279661	-0.692308	0.000000 
0.279661	-0.641026	0.000000 
0.279661	-0.589744	0.000000 
0.279661	-0.538462	0.000000 
0.279661	-0.487179	0.000000 
0.279661	-0.435897	0.000000 
0.279661	-0.384615	0.000000 
0.279661	-0.333333	0.000000 
0.279661	-0.282051	0.000000 
0.279661	-0.230769	0.000000 
0.279661	-0.179487	0.000000 
0.279661	-0.128205	0.000000 
0.279661	-0.076923	0.000000 
0.279661	-0.025641	0.000000 
0.279661	0.025641	0.000000 
0.279661	0.076923	0.000000 
0.279661	0.128205	0.000000 
0.279661	0.179487	0.000000 
0.279661	0.230769	0.000000 
0.279661	0.282051	0.000000 
0.279661	0.333333	0.000000 
0.279661	0.384615	0.000000 
0.279661	0.435897	0.000000 
0.279661	0.487180	0.000000 
0.279661	0.538462	0.000000 
0.279661	0.589744	0.000000 
0.279661	0.641026	0.000000 
0.279661	0.692308	0.000000 
0.279661	0.743590	0.000000 
0.279661	0.794872	0.000000 
0.279661	0.846154	0.000000 
0.279661	0.897436	0.000000 
0.279661	0.948718	0.000000 
0.279661	1.000000	0.000000 
0.330508	-1.000000	0.000000 
0.330508	-0.948718	0.000000 
0.330508	-0.897436	0.000000 
0.330508	-0.846154	0.000000 
0.330508	-0.794872	0.000000 
0.330508	-0.743590	0.000000 
0.330508	-0.692308	0.000000 
0.330508	-0.641026	0.000000 
0.330508	-0.589744	0.000000 
0.330508	-0.538462	0.000000 
0.330508	-0.487179	0.000000 
0.330508	-0.435897	0.000000 
0.330508	-0.384615	0.000000 
0.330508	-0.333333	0.000000 
0.330508	-0.282051	0.000000 
0.330508	-0.230769	0.000000 
0.330508	-0.179487	0.000000 
0.330508	-0.128205	0.000000 
0.330508	-0.076923	0.000000 
0.330508	-0.025641	0.000000 
0.330508	0.025641	0.000000 
0.330508	0.076923	0.000000 
0.330508	0.128205	0.000000 
0.330508	0.179487	0.000000 
0.330508	0.230769	0.000000 
0.330508	0.282051	0.000000 
0.330508	0.333333	0.000000 
0.330508	0.384615	0.000000 
0.330508	0.435897	0.000000 
0.330508	0.487180	0.000000 
0.330508	0.538462	0.000000 
0.330508	0.589744	0.000000 
0.330508	0.641026	0.000000 
0.330508	0.692308	0.000000 
0.330508	0.743590	0.000000 
0.330508	0.794872	0.000000 
0.330508	0.846154	0.000000 
0.330508	0.897436	0.000000 
0.330508	0.948718	0.000000 
0.330508	1.000000	0.000000 
0.381356	-1.000000	0.000000 
0.381356	-0.948718	0.000000 
0.381356	-0.897436	0.000000 
0.381356	-0.846154	0.000000 
0.381356	-0.794872	0.000000 
0.381356	-0.743590	0.000000 
0.381356	-0.692308	0.000000 
0.381356	-0.641026	0.000000 
0.381356	-0.589744	0.000000 
0.381356	-0.538462	0.000000 
0.381356	-0.487179	0.000000 
0.381356	-0.435897	0.000000 
0.381356	-0.384615	0.000000 
0.381356	-0.333333	0.000000 
0.381356	-0.282051	0.000000 
0.381356	-0.230769	0.000000 
0.381356	-0.179487	0.000000 
0.381356	-0.128205	0.000000 
0.381356	-0.076923	0.000000 
0.381356	-0.025641	0.000000 
0.381356	0.025641	0.000000 
0.381356	0.076923	0.000000 
0.381356	0.128205	0.000000 
0.381356	0.179487	0.000000 
0.381356	0.230769	0.000000 
0.381356	0.282051	0.000000 
0.381356	0.333333	0.000000 
0.381356	0.384615	0.000000 
0.381356	0.435897	0.000000 
0.381356	0.487180	0.000000 
0.381356	0.538462	0.000000 
0.381356	0.589744	0.000000 
0.381356	0.641026	0.000000 
0.381356	0.692308	0.000000 
0.381356	0.743590	0.000000 
0.381356	0.794872	0.000000 
0.381356	0.846154	0.000000 
0.381356	0.897436	0.000000 
0.381356	0.948718	0.000000 
0.381356	1.000000	0.000000 
0.432203	-1.000000	0.000000 
0.432203	-0.948718	0.000000 
0.432203	-0.897436	0.000000 
0.432203	-0.846154	0.000000 
0.432203	-0.794872	0.000000 
0.432203	-0.743590	0.000000 
0.432203	-0.692308	0.000000 
0.432203	-0.641026	0.000000 
0.432203	-0.589744	0.000000 
0.432203	-0.538462	0.000000 
0.432203	-0.487179	0.000000 
0.432203	-0.435897	0.000000 
0.432203	-0.384615	0.000000 
0.432203	-0.333333	0.000000 
0.432203	-0.282051	0.000000 
0.432203	-0.230769	0.000000 
0.432203	-0.179487	0.000000 
0.432203	-0.128205	0.000000 
0.432203	-0.076923	0.000000 
0.432203	-0.025641	0.000000 
0.432203	0.025641	0.000000 
0.432203	0.076923	0.000000 
0.432203	0.128205	0.000000 
0.432203	0.179487	0.000000 
0.432203	0.230769	0.000000 
0.432203	0.282051	0.000000 
0.432203	0.333333	0.000000 
0.432203	0.384615	0.000000 
0.432203	0.435897	0.000000 
0.432203	0.487180	0.000000 
0.432203	0.538462	0.000000 
0.432203	0.589744	0.000000 
0.432203	0.641026	0.000000 
0.432203	0.692308	0.000000 
0.432203	0.743590	0.000000 
0.432203	0.794872	0.000000 
0.432203	0.846154	0.000000 
0.432203	0.897436	0.000000 
0.432203	0.948718	0.000000 
0.432203	1.000000	0.000000 
0.483051	-1.000000	0.000000 
0.483051	-0.948718	0.000000 
0.483051	-0.897436	0.000000 
0.483051	-0.846154	0.000000 
0.483051	-0.794872	0.000000 
0.483051	-0.743590	0.000000 
0.483051	-0.692308	0.000000 
0.483051	-0.641026	0.000000 
0.483051	-0.589744	0.000000 
0.483051	-0.538462	0.000000 
0.483051	-0.487179	0.000000 
0.483051	-0.435897	0.000000 
0.483051	-0.384615	0.000000 
0.483051	-0.333333	0.000000 
0.483051	-0.282051	0.000000 
0.483051	-0.230769	0.000000 
0.483051	-0.179487	0.000000 
0.483051	-0.128205	0.000000 
0.483051	-0.076923	0.000000 
0.483051	-0.025641	0.000000 
0.483051	0.025641	0.000000 
0.483051	0.076923	0.000000 
0.483051	0.128205	0.000000 
0.483051	0.179487	0.000000 
0.483051	0.230769	0.000000 
0.483051	0.282051	0.000000 
0.483051	0.333333	0.000000 
0.483051	0.384615	0.000000 
0.483051	0.435897	0.000000 
0.483051	0.487180	0.000000 
0.483051	0.538462	0.000000 
0.483051	0.589744	0.000000 
0.483051	0.641026	0.000000 
0.483051	0.692308	0.000000 
0.483051	0.743590	0.000000 
0.483051	0.794872	0.000000 
0.483051	0.846154	0.000000 
0.483051	0.897436	0.000000 
0.483051	0.948718	0.000000 
0.483051	1.000000	0.000000 
0.533898	-1.000000	0.000000 
0.533898	-0.948718	0.000000 
0.533898	-0.897436	0.000000 
0.533898	-0.846154	0.000000 
0.533898	-0.794872	0.000000 
0.533898	-0.743590	0.000000 
0.533898	-0.692308	0.000000 
0.533898	-0.641026	0.000000 
0.533898	-0.589744	0.000000 
0.533898	-0.538462	0.000000 
0.533898	-0.487179	0.000000 
0.533898	-0.435897	0.000000 
0.533898	-0.384615	0.000000 
0.533898	-0.333333	0.000000 
0.533898	-0.282051	0.000000 
0.533898	-0.230769	0.000000 
0.533898	-0.179487	0.000000 
0.533898	-0.128205	0.000000 
0.533898	-0.076923	0.000000 
0.533898	-0.025641	0.000000 
0.533898	0.025641	0.000000 
0.533898	0.076923	0.000000 
0.533898	0.128205	0.000000 
0.533898	0.179487	0.000000 
0.533898	0.230769	0.000000 
0.533898	0.282051	0.000000 
0.533898	0.333333	0.000000 
0.533898	0.384615	0.000000 
0.533898	0.435897	0.000000 
0.533898	0.487180	0.000000 
0.533898	0.538462	0.000000 
0.533898	0.589744	0.000000 
0.533898	0.641026	0.000000 
0.533898	0.692308	0.000000 
0.533898	0.743590	0.000000 
0.533898	0.794872	0.000000 
0.533898	0.846154	0.000000 
0.533898	0.897436	0.000000 
0.533898	0.948718	0.000000 
0.533898	1.000000	0.000000 
0.584746	-1.000000	0.000000 
0.584746	-0.948718	0.000000 
0.584746	-0.897436	0.000000 
0.584746	-0.846154	0.000000 
0.584746	-0.794872	0.000000 
0.584746	-0.743590	0.000000 
0.584746	-0.692308	0.000000 
0.584746	-0.641026	0.000000 
0.584746	-0.589744	0.000000 
0.584746	-0.538462	0.000000 
0.584746	-0.487179	0.000000 
0.584746	-0.435897	0.000000 
0.584746	-0.384615	0.000000 
0.584746	-0.333333	0.000000 
0.584746	-0.282051	0.000000 
0.584746	-0.230769	0.000000 
0.584746	-0.179487	0.000000 
0.584746	-0.128205	0.000000 
0.584746	-0.076923	0.000000 
0.584746	-0.025641	0.000000 
0.584746	0.025641	0.000000 
0.584746	0.076923	0.000000 
0.584746	0.128205	0.000000 
0.584746	0.179487	0.000000 
0.584746	0.230769	0.000000 
0.584746	0.282051	0.000000 
0.584746	0.333333	0.000000 
0.584746	0.384615	0.000000 
0.584746	0.435897	0.000000 
0.584746	0.487180	0.000000 
0.584746	0.538462	0.000000 
0.584746	0.589744	0.000000 
0.584746	0.641026	0.000000 
0.584746	0.692308	0.000000 
0.584746	0.743590	0.000000 
0.584746	0.794872	0.000000 
0.584746	0.846154	0.000000 
0.584746	0.897436	0.000000 
0.584746	0.948718	0.000000 
0.584746	1.000000	0.000000 
0.635593	-1.000000	0.000000 
0.635593	-0.948718	0.000000 
0.635593	-0.897436	0.000000 
0.635593	-0.846154	0.000000 
0.635593	-0.794872	0.000000 
0.635593	-0.743590	0.000000 
0.635593	-0.692308	0.000000 
0.635593	-0.641026	0.000000 
0.635593	-0.589744	0.000000 
0.635593	-0.538462	0.000000 
0.635593	-0.487179	0.000000 
0.635593	-0.435897	0.000000 
0.635593	-0.384615	0.000000 
0.635593	-0.333333	0.000000 
0.635593	-0.282051	0.000000 
0.635593	-0.230769	0.000000 
0.635593	-0.179487	0.000000 
0.635593	-0.128205	0.000000 
0.635593	-0.076923	0.000000 
0.635593	-0.025641	0.000000 
0.635593	0.025641	0.000000 
0.635593	0.076923	0.000000 
0.635593	0.128205	0.000000 
0.635593	0.179487	0.000000 
0.635593	0.230769	0.000000 
0.635593	0.282051	0.000000 
0.635593	0.333333	0.000000 
0.635593	0.384615	0.000000 
0.635593	0.435897	0.000000 
0.635593	0.487180	0.000000 
0.635593	0.538462	0.000000 
0.635593	0.589744	0.000000 
0.635593	0.641026	0.000000 
0.635593	0.692308	0.000000 
0.635593	0.743590	0.000000 
0.635593	0.794872	0.000000 
0.635593	0.846154	0.000000 
0.635593	0.897436	0.000000 
0.635593	0.948718	0.000000 
0.635593	1.000000	0.000000 
0.686441	-1.000000	0.000000 
0.686441	-0.948718	0.000000 
0.686441	-0.897436	0.000000 
0.686441	-0.846154	0.000000 
0.686441	-0.794872	0.000000 
0.686441	-0.743590	0.000000 
0.686441	-0.692308	0.000000 
0.686441	-0.641026	0.000000 
0.686441	-0.589744	0.000000 
0.686441	-0.538462	0.000000 
0.686441	-0.487179	0.000000 
0.686441	-0.435897	0.000000 
0.686441	-0.384615	0.000000 
0.686441	-0.333333	0.000000 
0.686441	-0.282051	0.000000 
0.686441	-0.230769	0.000000 
0.686441	-0.179487	0.000000 
0.686441	-0.128205	0.000000 
0.686441	-0.076923	0.000000 
0.686441	-0.025641	0.000000 
0.686441	0.025641	0.000000 
0.686441	0.076923	0.000000 
0.686441	0.128205	0.000000 
0.686441	0.179487	0.000000 
0.686441	0.230769	0.000000 
0.686441	0.282051	0.000000 
0.686441	0.333333	0.000000 
0.686441	0.384615	0.000000 
0.686441	0.435897	0.000000 
0.686441	0.487180	0.000000 
0.686441	0.538462	0.000000 
0.686441	0.589744	0.000000 
0.686441	0.641026	0.000000 
0.686441	0.692308	0.000000 
0.686441	0.743590	0.000000 
0.686441	0.794872	0.000000 
0.686441	0.846154	0.000000 
0.686441	0.897436	0.000000 
0.686441	0.948718	0.000000 
0.686441	1.000000	0.000000 
0.737288	-1.000000	0.000000 
0.737288	-0.948718	0.000000 
0.737288	-0.897436	0.000000 
0.737288	-0.846154	0.000000 
0.737288	-0.794872	0.000000 
0.737288	-0.743590	0.000000 
0.737288	-0.692308	0.000000 
0.737288	-0.641026	0.000000 
0.737288	-0.589744	0.000000 
0.737288	-0.538462	0.000000 
0.737288	-0.487179	0.000000 
0.737288	-0.435897	0.000000 
0.737288	-0.384615	0.000000 
0.737288	-0.333333	0.000000 
0.737288	-0.282051	0.000000 
0.737288	-0.230769	0.000000 
0.737288	-0.179487	0.000000 
0.737288	-0.128205	0.000000 
0.737288	-0.076923	0.000000 
0.737288	-0.025641	0.000000 
0.737288	0.025641	0.000000 
0.737288	0.076923	0.000000 
0.737288	0.128205	0.000000 
0.737288	0.179487	0.000000 
0.737288	0.230769	0.000000 
0.737288	0.282051	0.000000 
0.737288	0.333333	0.000000 
0.737288	0.384615	0.000000 
0.737288	0.435897	0.000000 
0.737288	0.487180	0.000000 
0.737288	0.538462	0.000000 
0.737288	0.589744	0.000000 
0.737288	0.641026	0.000000 
0.737288	0.692308	0.000000 
0.737288	0.743590	0.000000 
0.737288	0.794872	0.000000 
0.737288	0.846154	0.000000 
0.737288	0.897436	0.000000 
0.737288	0.948718	0.000000 
0.737288	1.000000	0.000000 
0.788136	-1.000000	0.000000 
0.788136	-0.948718	0.000000 
0.788136	-0.897436	0.000000 
0.788136	-0.846154	0.000000 
0.788136	-0.794872	0.000000 
0.788136	-0.743590	0.000000 
0.788136	-0.692308	0.000000 
0.788136	-0.641026	0.000000 
0.788136	-0.589744	0.000000 
0.788136	-0.538462	0.000000 
0.788136	-0.487179	0.000000 
0.788136	-0.435897	0.000000 
0.788136	-0.384615	0.000000 
0.788136	-0.333333	0.000000 
0.788136	-0.282051	0.000000 
0.788136	-0.230769	0.000000 
0.788136	-0.179487	0.000000 
0.788136	-0.128205	0.000000 
0.788136	-0.076923	0.000000 
0.788136	-0.025641	0.000000 
0.788136	0.025641	0.000000 
0.788136	0.076923	0.000000 
0.788136	0.128205	0.000000 
0.788136	0.179487	0.000000 
0.788136	0.230769	0.000000 
0.788136	0.282051	0.000000 
0.788136	0.333333	0.000000 
0.788136	0.384615	0.000000 
0.788136	0.435897	0.000000 
0.788136	0.487180	0.000000 
0.788136	0.538462	0.000000 
0.788136	0.589744	0.000000 
0.788136	0.641026	0.000000 
0.788136	0.692308	0.000000 
0.788136	0.743590	0.000000 
0.788136	0.794872	0.000000 
0.788136	0.846154	0.000000 
0.788136	0.897436	0.000000 
0.788136	0.948718	0.000000 
0.788136	1.000000	0.000000 
0.838983	-1.000000	0.000000 
0.838983	-0.948718	0.000000 
0.838983	-0.897436	0.000000 
0.838983	-0.846154	0.000000 
0.838983	-0.794872	0.000000 
0.838983	-0.743590	0.000000 
0.838983	-0.692308	0.000000 
0.838983	-0.641026	0.000000 
0.838983	-0.589744	0.000000 
0.838983	-0.538462	0.000000 
0.838983	-0.487179	0.000000 
0.838983	-0.435897	0.000000 
0.838983	-0.384615	0.000000 
0.838983	-0.333333	0.000000 
0.838983	-0.282051	0.000000 
0.838983	-0.230769	0.000000 
0.838983	-0.179487	0.000000 
0.838983	-0.128205	0.000000 
0.838983	-0.076923	0.000000 
0.838983	-0.025641	0.000000 
0.838983	0.025641	0.000000 
0.838983	0.076923	0.000000 
0.838983	0.128205	0.000000 
0.838983	0.179487	0.000000 
0.838983	0.230769	0.000000 
0.838983	0.282051	0.000000 
0.838983	0.333333	0.000000 
0.838983	0.384615	0.000000 
0.838983	0.435897	0.000000 
0.838983	0.487180	0.000000 
0.838983	0.538462	0.000000 
0.838983	0.589744	0.000000 
0.838983	0.641026	0.000000 
0.838983	0.692308	0.000000 
0.838983	0.743590	0.000000 
0.838983	0.794872	0.000000 
0.838983	0.846154	0.000000 
0.838983	0.897436	0.000000 
0.838983	0.948718	0.000000 
0.838983	1.000000	0.000000 
0.889830	-1.000000	0.000000 
0.889830	-0.948718	0.000000 
0.889830	-0.897436	0.000000 
0.889830	-0.846154	0.000000 
0.889830	-0.794872	0.000000 
0.889830	-0.743590	0.000000 
0.889830	-0.692308	0.000000 
0.889830	-0.641026	0.000000 
0.889830	-0.589744	0.000000 
0.889830	-0.538462	0.000000 
0.889830	-0.487179	0.000000 
0.889830	-0.435897	0.000000 
0.889830	-0.384615	0.000000 
0.889830	-0.333333	0.000000 
0.889830	-0.282051	0.000000 
0.889830	-0.230769	0.000000 
0.889830	-0.179487	0.000000 
0.889830	-0.128205	0.000000 
0.889830	-0.076923	0.000000 
0.889830	-0.025641	0.000000 
0.889830	0.025641	0.000000 
0.889830	0.076923	0.000000 
0.889830	0.128205	0.000000 
0.889830	0.179487	0.000000 
0.889830	0.230769	0.000000 
0.889830	0.282051	0.000000 
0.889830	0.333333	0.000000 
0.889830	0.384615	0.000000 
0.889830	0.435897	0.000000 
0.889830	0.487180	0.000000 
0.889830	0.538462	0.000000 
0.889830	0.589744	0.000000 
0.889830	0.641026	0.000000 
0.889830	0.692308	0.000000 
0.889830	0.743590	0.000000 
0.889830	0.794872	0.000000 
0.889830	0.846154	0.000000 
0.889830	0.897436	0.000000 
0.889830	0.948718	0.000000 
0.889830	1.000000	0.000000 
0.940678	-1.000000	0.000000 
0.940678	-0.948718	0.000000 
0.940678	-0.897436	0.000000 
0.940678	-0.846154	0.000000 
0.940678	-0.794872	0.000000 
0.940678	-0.743590	0.000000 
0.940678	-0.692308	0.000000 
0.940678	-0.641026	0.000000 
0.940678	-0.589744	0.000000 
0.940678	-0.538462	0.000000 
0.940678	-0.487179	0.000000 
0.940678	-0.435897	0.000000 
0.940678	-0.384615	0.000000 
0.940678	-0.333333	0.000000 
0.940678	-0.282051	0.000000 
0.940678	-0.230769	0.000000 
0.940678	-0.179487	0.000000 
0.940678	-0.128205	0.000000 
0.940678	-0.076923	0.000000 
0.940678	-0.025641	0.000000 
0.940678	0.025641	0.000000 
0.940678	0.076923	0.000000 
0.940678	0.128205	0.000000 
0.940678	0.179487	0.000000 
0.940678	0.230769	0.000000 
0.940678	0.282051	0.000000 
0.940678	0.333333	0.000000 
0.940678	0.384615	0.000000 
0.940678	0.435897	0.000000 
0.940678	0.487180	0.000000 
0.940678	0.538462	0.000000 
0.940678	0.589744	0.000000 
0.940678	0.641026	0.000000 
0.940678	0.692308	0.000000 
0.940678	0.743590	0.000000 
0.940678	0.794872	0.000000 
0.940678	0.846154	0.000000 
0.940678	0.897436	0.000000 
0.940678	0.948718	0.000000 
0.940678	1.000000	0.000000 
0.991525	-1.000000	0.000000 
0.991525	-0.948718	0.000000 
0.991525	-0.897436	0.000000 
0.991525	-0.846154	0.000000 
0.991525	-0.794872	0.000000 
0.991525	-0.743590	0.000000 
0.991525	-0.692308	0.000000 
0.991525	-0.641026	0.000000 
0.991525	-0.589744	0.000000 
0.991525	-0.538462	0.000000 
0.991525	-0.487179	0.000000 
0.991525	-0.435897	0.000000 
0.991525	-0.384615	0.000000 
0.991525	-0.333333	0.000000 
0.991525	-0.282051	0.000000 
0.991525	-0.230769	0.000000 
0.991525	-0.179487	0.000000 
0.991525	-0.128205	0.000000 
0.991525	-0.076923	0.000000 
0.991525	-0.025641	0.000000 
0.991525	0.025641	0.000000 
0.991525	0.076923	0.000000 
0.991525	0.128205	0.000000 
0.991525	0.179487	0.000000 
0.991525	0.230769	0.000000 
0.991525	0.282051	0.000000 
0.991525	0.333333	0.000000 
0.991525	0.384615	0.000000 
0.991525	0.435897	0.000000 
0.991525	0.487180	0.000000 
0.991525	0.538462	0.000000 
0.991525	0.589744	0.000000 
0.991525	0.641026	0.000000 
0.991525	0.692308	0.000000 
0.991525	0.743590	0.000000 
0.991525	0.794872	0.000000 
0.991525	0.846154	0.000000 
0.991525	0.897436	0.000000 
0.991525	0.948718	0.000000 
0.991525	1.000000	0.000000 
1.042373	-1.000000	0.000000 
1.042373	-0.948718	0.000000 
1.042373	-0.897436	0.000000 
1.042373	-0.846154	0.000000 
1.042373	-0.794872	0.000000 
1.042373	-0.743590	0.000000 
1.042373	-0.692308	0.000000 
1.042373	-0.641026	0.000000 
1.042373	-0.589744	0.000000 
1.042373	-0.538462	0.000000 
1.042373	-0.487179	0.000000 
1.042373	-0.435897	0.000000 
1.042373	-0.384615	0.000000 
1.042373	-0.333333	0.000000 
1.042373	-0.282051	0.000000 
1.042373	-0.230769	0.000000 
1.042373	-0.179487	0.000000 
1.042373	-0.128205	0.000000 
1.042373	-0.076923	0.000000 
1.042373	-0.025641	0.000000 
1.042373	0.025641	0.000000 
1.042373	0.076923	0.000000 
1.042373	0.128205	0.000000 
1.042373	0.179487	0.000000 
1.042373	0.230769	0.000000 
1.042373	0.282051	0.000000 
1.042373	0.333333	0.000000 
1.042373	0.384615	0.000000 
1.042373	0.435897	0.000000 
1.042373	0.487180	0.000000 
1.042373	0.538462	0.000000 
1.042373	0.589744	0.000000 
1.042373	0.641026	0.000000 
1.042373	0.692308	0.000000 
1.042373	0.743590	0.000000 
1.042373	0.794872	0.000000 
1.042373	0.846154	0.000000 
1.042373	0.897436	0.000000 
1.042373	0.948718	0.000000 
1.042373	1.000000	0.000000 
1.093220	-1.000000	0.000000 
1.093220	-0.948718	0.000000 
1.093220	-0.897436	0.000000 
1.093220	-0.846154	0.000000 
1.093220	-0.794872	0.000000 
1.093220	-0.743590	0.000000 
1.093220	-0.692308	0.000000 
1.093220	-0.641026	0.000000 
1.093220	-0.589744	0.000000 
1.093220	-0.538462	0.000000 
1.093220	-0.487179	0.000000 
1.093220	-0.435897	0.000000 
1.093220	-0.384615	0.000000 
1.093220	-0.333333	0.000000 
1.093220	-0.282051	0.000000 
1.093220	-0.230769	0.000000 
1.093220	-0.179487	0.000000 
1.093220	-0.128205	0.000000 
1.093220	-0.076923	0.000000 
1.093220	-0.025641	0.000000 
1.093220	0.025641	0.000000 
1.093220	0.076923	0.000000 
1.093220	0.128205	0.000000 
1.093220	0.179487	0.000000 
1.093220	0.230769	0.000000 
1.093220	0.282051	0.000000 
1.093220	0.333333	0.000000 
1.093220	0.384615	0.000000 
1.093220	0.435897	0.000000 
1.093220	0.487180	0.000000 
1.093220	0.538462	0.000000 
1.093220	0.589744	0.000000 
1.093220	0.641026	0.000000 
1.093220	0.692308	0.000000 
1.093220	0.743590	0.000000 
1.093220	0.794872	0.000000 
1.093220	0.846154	0.000000 
1.093220	0.897436	0.000000 
1.093220	0.948718	0.000000 
1.093220	1.000000	0.000000 
1.144068	-1.000000	0.000000 
1.144068	-0.948718	0.000000 
1.144068	-0.897436	0.000000 
1.144068	-0.846154	0.000000 
1.144068	-0.794872	0.000000 
1.144068	-0.743590	0.000000 
1.144068	-0.692308	0.000000 
1.144068	-0.641026	0.000000 
1.144068	-0.589744	0.000000 
1.144068	-0.538462	0.000000 
1.144068	-0.487179	0.000000 
1.144068	-0.435897	0.000000 
1.144068	-0.384615	0.000000 
1.144068	-0.333333	0.000000 
1.144068	-0.282051	0.000000 
1.144068	-0.230769	0.000000 
1.144068	-0.179487	0.000000 
1.144068	-0.128205	0.000000 
1.144068	-0.076923	0.000000 
1.144068	-0.025641	0.000000 
1.144068	0.025641	0.000000 
1.144068	0.076923	0.000000 
1.144068	0.128205	0.000000 
1.144068	0.179487	0.000000 
1.144068	0.230769	0.000000 
1.144068	0.282051	0.000000 
1.144068	0.333333	0.000000 
1.144068	0.384615	0.000000 
1.144068	0.435897	0.000000 
1.144068	0.487180	0.000000 
1.144068	0.538462	0.000000 
1.144068	0.589744	0.000000 
1.144068	0.641026	0.000000 
1.144068	0.692308	0.000000 
1.144068	0.743590	0.000000 
1.144068	0.794872	0.000000 
1.144068	0.846154	0.000000 
1.144068	0.897436	0.000000 
1.144068	0.948718	0.000000 
1.144068	1.000000	0.000000 
1.194915	-1.000000	0.000000 
1.194915	-0.948718	0.000000 
1.194915	-0.897436	0.000000 
1.194915	-0.846154	0.000000 
1.194915	-0.794872	0.000000 
1.194915	-0.743590	0.000000 
1.194915	-0.692308	0.000000 
1.194915	-0.641026	0.000000 
1.194915	-0.589744	0.000000 
1.194915	-0.538462	0.000000 
1.194915	-0.487179	0.000000 
1.194915	-0.435897	0.000000 
1.194915	-0.384615	0.000000 
1.194915	-0.333333	0.000000 
1.194915	-0.282051	0.000000 
1.194915	-0.230769	0.000000 
1.194915	-0.179487	0.000000 
1.194915	-0.128205	0.000000 
1.194915	-0.076923	0.000000 
1.194915	-0.025641	0.000000 
1.194915	0.025641	0.000000 
1.194915	0.076923	0.000000 
1.194915	0.128205	0.000000 
1.194915	0.179487	0.000000 
1.194915	0.230769	0.000000 
1.194915	0.282051	0.000000 
1.194915	0.333333	0.000000 
1.194915	0.384615	0.000000 
1.194915	0.435897	0.000000 
1.194915	0.487180	0.000000 
1.194915	0.538462	0.000000 
1.194915	0.589744	0.000000 
1.194915	0.641026	0.000000 
1.194915	0.692308	0.000000 
1.194915	0.743590	0.000000 
1.194915	0.794872	0.000000 
1.194915	0.846154	0.000000 
1.194915	0.897436	0.000000 
1.194915	0.948718	0.000000 
1.194915	1.000000	0.000000 
1.245763	-1.000000	0.000000 
1.245763	-0.948718	0.000000 
1.245763	-0.897436	0.000000 
1.245763	-0.846154	0.000000 
1.245763	-0.794872	0.000000 
1.245763	-0.743590	0.000000 
1.245763	-0.692308	0.000000 
1.245763	-0.641026	0.000000 
1.245763	-0.589744	0.000000 
1.245763	-0.538462	0.000000 
1.245763	-0.487179	0.000000 
1.245763	-0.435897	0.000000 
1.245763	-0.384615	0.000000 
1.245763	-0.333333	0.000000 
1.245763	-0.282051	0.000000 
1.245763	-0.230769	0.000000 
1.245763	-0.179487	0.000000 
1.245763	-0.128205	0.000000 
1.245763	-0.076923	0.000000 
1.245763	-0.025641	0.000000 
1.245763	0.025641	0.000000 
1.245763	0.076923	0.000000 
1.245763	0.128205	0.000000 
1.245763	0.179487	0.000000 
1.245763	0.230769	0.000000 
1.245763	0.282051	0.000000 
1.245763	0.333333	0.000000 
1.245763	0.384615	0.000000 
1.245763	0.435897	0.000000 
1.245763	0.487180	0.000000 
1.245763	0.538462	0.000000 
1.245763	0.589744	0.000000 
1.245763	0.641026	0.000000 
1.245763	0.692308	0.000000 
1.245763	0.743590	0.000000 
1.245763	0.794872	0.000000 
1.245763	0.846154	0.000000 
1.245763	0.897436	0.000000 
1.245763	0.948718	0.000000 
1.245763	1.000000	0.000000 
1.296610	-1.000000	0.000000 
1.296610	-0.948718	0.000000 
1.296610	-0.897436	0.000000 
1.296610	-0.846154	0.000000 
1.296610	-0.794872	0.000000 
1.296610	-0.743590	0.000000 
1.296610	-0.692308	0.000000 
1.296610	-0.641026	0.000000 
1.296610	-0.589744	0.000000 
1.296610	-0.538462	0.000000 
1.296610	-0.487179	0.000000 
1.296610	-0.435897	0.000000 
1.296610	-0.384615	0.000000 
1.296610	-0.333333	0.000000 
1.296610	-0.282051	0.000000 
1.296610	-0.230769	0.000000 
1.296610	-0.179487	0.000000 
1.296610	-0.128205	0.000000 
1.296610	-0.076923	0.000000 
1.296610	-0.025641	0.000000 
1.296610	0.025641	0.000000 
1.296610	0.076923	0.000000 
1.296610	0.128205	0.000000 
1.296610	0.179487	0.000000 
1.296610	0.230769	0.000000 
1.296610	0.282051	0.000000 
1.296610	0.333333	0.000000 
1.296610	0.384615	0.000000 
1.296610	0.435897	0.000000 
1.296610	0.487180	0.000000 
1.296610	0.538462	0.000000 
1.296610	0.589744	0.000000 
1.296610	0.641026	0.000000 
1.296610	0.692308	0.000000 
1.296610	0.743590	0.000000 
1.296610	0.794872	0.000000 
1.296610	0.846154	0.000000 
1.296610	0.897436	0.000000 
1.296610	0.948718	0.000000 
1.296610	1.000000	0.000000 
1.347457	-1.000000	0.000000 
1.347457	-0.948718	0.000000 
1.347457	-0.897436	0.000000 
1.347457	-0.846154	0.000000 
1.347457	-0.794872	0.000000 
1.347457	-0.743590	0.000000 
1.347457	-0.692308	0.000000 
1.347457	-0.641026	0.000000 
1.347457	-0.589744	0.000000 
1.347457	-0.538462	0.000000 
1.347457	-0.487179	0.000000 
1.347457	-0.435897	0.000000 
1.347457	-0.384615	0.000000 
1.347457	-0.333333	0.000000 
1.347457	-0.282051	0.000000 
1.347457	-0.230769	0.000000 
1.347457	-0.179487	0.000000 
1.347457	-0.128205	0.000000 
1.347457	-0.076923	0.000000 
1.347457	-0.025641	0.000000 
1.347457	0.025641	0.000000 
1.347457	0.076923	0.000000 
1.347457	0.128205	0.000000 
1.347457	0.179487	0.000000 
1.347457	0.230769	0.000000 
1.347457	0.282051	0.000000 
1.347457	0.333333	0.000000 
1.347457	0.384615	0.000000 
1.347457	0.435897	0.000000 
1.347457	0.487180	0.000000 
1.347457	0.538462	0.000000 
1.347457	0.589744	0.000000 
1.347457	0.641026	0.000000 
1.347457	0.692308	0.000000 
1.347457	0.743590	0.000000 
1.347457	0.794872	0.000000 
1.347457	0.846154	0.000000 
1.347457	0.897436	0.000000 
1.347457	0.948718	0.000000 
1.347457	1.000000	0.000000 
1.398305	-1.000000	0.000000 
1.398305	-0.948718	0.000000 
1.398305	-0.897436	0.000000 
1.398305	-0.846154	0.000000 
1.398305	-0.794872	0.000000 
1.398305	-0.743590	0.000000 
1.398305	-0.692308	0.000000 
1.398305	-0.641026	0.000000 
1.398305	-0.589744	0.000000 
1.398305	-0.538462	0.000000 
1.398305	-0.487179	0.000000 
1.398305	-0.435897	0.000000 
1.398305	-0.384615	0.000000 
1.398305	-0.333333	0.000000 
1.398305	-0.282051	0.000000 
1.398305	-0.230769	0.000000 
1.398305	-0.179487	0.000000 
1.398305	-0.128205	0.000000 
1.398305	-0.076923	0.000000 
1.398305	-0.025641	0.000000 
1.398305	0.025641	0.000000 
1.398305	0.076923	0.000000 
1.398305	0.128205	0.000000 
1.398305	0.179487	0.000000 
1.398305	0.230769	0.000000 
1.398305	0.282051	0.000000 
1.398305	0.333333	0.000000 
1.398305	0.384615	0.000000 
1.398305	0.435897	0.000000 
1.398305	0.487180	0.000000 
1.398305	0.538462	0.000000 
1.398305	0.589744	0.000000 
1.398305	0.641026	0.000000 
1.398305	0.692308	0.000000 
1.398305	0.743590	0.000000 
1.398305	0.794872	0.000000 
1.398305	0.846154	0.000000 
1.398305	0.897436	0.000000 
1.398305	0.948718	0.000000 
1.398305	1.000000	0.000000 
1.449152	-1.000000	0.000000 
1.449152	-0.948718	0.000000 
1.449152	-0.897436	0.000000 
1.449152	-0.846154	0.000000 
1.449152	-0.794872	0.000000 
1.449152	-0.743590	0.000000 
1.449152	-0.692308	0.000000 
1.449152	-0.641026	0.000000 
1.449152	-0.589744	0.000000 
1.449152	-0.538462	0.000000 
1.449152	-0.487179	0.000000 
1.449152	-0.435897	0.000000 
1.449152	-0.384615	0.000000 
1.449152	-0.333333	0.000000 
1.449152	-0.282051	0.000000 
1.449152	-0.230769	0.000000 
1.449152	-0.179487	0.000000 
1.449152	-0.128205	0.000000 
1.449152	-0.076923	0.000000 
1.449152	-0.025641	0.000000 
1.449152	0.025641	0.000000 
1.449152	0.076923	0.000000 
1.449152	0.128205	0.000000 
1.449152	0.179487	0.000000 
1.449152	0.230769	0.000000 
1.449152	0.282051	0.000000 
1.449152	0.333333	0.000000 
1.449152	0.384615	0.000000 
1.449152	0.435897	0.000000 
1.449152	0.487180	0.000000 
1.449152	0.538462	0.000000 
1.449152	0.589744	0.000000 
1.449152	0.641026	0.000000 
1.449152	0.692308	0.000000 
1.449152	0.743590	0.000000 
1.449152	0.794872	0.000000 
1.449152	0.846154	0.000000 
1.449152	0.897436	0.000000 
1.449152	0.948718	0.000000 
1.449152	1.000000	0.000000 
1.500000	-1.000000	0.000000 
1.500000	-0.948718	0.000000 
1.500000	-0.897436	0.000000 
1.500000	-0.846154	0.000000 
1.500000	-0.794872	0.000000 
1.500000	-0.743590	0.000000 
1.500000	-0.692308	0.000000 
1.500000	-0.641026	0.000000 
1.500000	-0.589744	0.000000 
1.500000	-0.538462	0.000000 
1.500000	-0.487179	0.000000 
1.500000	-0.435897	0.000000 
1.500000	-0.384615	0.000000 
1.500000	-0.333333	0.000000 
1.500000	-0.282051	0.000000 
1.500000	-0.230769	0.000000 
1.500000	-0.179487	0.000000 
1.500000	-0.128205	0.000000 
1.500000	-0.076923	0.000000 
1.500000	-0.025641	0.000000 
1.500000	0.025641	0.000000 
1.500000	0.076923	0.000000 
1.500000	0.128205	0.000000 
1.500000	0.179487	0.000000 
1.500000	0.230769	0.000000 
1.500000	0.282051	0.000000 
1.500000	0.333333	0.000000 
1.500000	0.384615	0.000000 
1.500000	0.435897	0.000000 
1.500000	0.487180	0.000000 
1.500000	0.538462	0.000000 
1.500000	0.589744	0.000000 
1.500000	0.641026	0.000000 
1.500000	0.692308	0.000000 
1.500000	0.743590	0.000000 
1.500000	0.794872	0.000000 
1.500000	0.846154	0.000000 
1.500000	0.897436	0.000000 
1.500000	0.948718	0.000000 
1.500000	1.000000	0.000000 
