81		 51 
-1.500000	-1.000000	0.000000 
-1.500000	-0.960000	0.000000 
-1.500000	-0.920000	0.000000 
-1.500000	-0.880000	0.000000 
-1.500000	-0.840000	0.000000 
-1.500000	-0.800000	0.000000 
-1.500000	-0.760000	0.000000 
-1.500000	-0.720000	0.000000 
-1.500000	-0.680000	0.000000 
-1.500000	-0.640000	0.000000 
-1.500000	-0.600000	0.000000 
-1.500000	-0.560000	0.000000 
-1.500000	-0.520000	0.000000 
-1.500000	-0.480000	0.000000 
-1.500000	-0.440000	0.000000 
-1.500000	-0.400000	0.000000 
-1.500000	-0.360000	0.000000 
-1.500000	-0.320000	0.000000 
-1.500000	-0.280000	0.000000 
-1.500000	-0.240000	0.000000 
-1.500000	-0.200000	0.000000 
-1.500000	-0.160000	0.000000 
-1.500000	-0.120000	0.000000 
-1.500000	-0.080000	0.000000 
-1.500000	-0.040000	0.000000 
-1.500000	0.000000	0.000000 
-1.500000	0.040000	0.000000 
-1.500000	0.080000	0.000000 
-1.500000	0.120000	0.000000 
-1.500000	0.160000	0.000000 
-1.500000	0.200000	0.000000 
-1.500000	0.240000	0.000000 
-1.500000	0.280000	0.000000 
-1.500000	0.320000	0.000000 
-1.500000	0.360000	0.000000 
-1.500000	0.400000	0.000000 
-1.500000	0.440000	0.000000 
-1.500000	0.480000	0.000000 
-1.500000	0.520000	0.000000 
-1.500000	0.560000	0.000000 
-1.500000	0.600000	0.000000 
-1.500000	0.640000	0.000000 
-1.500000	0.680000	0.000000 
-1.500000	0.720000	0.000000 
-1.500000	0.760000	0.000000 
-1.500000	0.800000	0.000000 
-1.500000	0.840000	0.000000 
-1.500000	0.880000	0.000000 
-1.500000	0.920000	0.000000 
-1.500000	0.960000	0.000000 
-1.500000	1.000000	0.000000 
-1.462500	-1.000000	0.000000 
-1.462500	-0.960000	0.000000 
-1.462500	-0.920000	0.000000 
-1.462500	-0.880000	0.000000 
-1.462500	-0.840000	0.000000 
-1.462500	-0.800000	0.000000 
-1.462500	-0.760000	0.000000 
-1.462500	-0.720000	0.000000 
-1.462500	-0.680000	0.000000 
-1.462500	-0.640000	0.000000 
-1.462500	-0.600000	0.000000 
-1.462500	-0.560000	0.000000 
-1.462500	-0.520000	0.000000 
-1.462500	-0.480000	0.000000 
-1.462500	-0.440000	0.000000 
-1.462500	-0.400000	0.000000 
-1.462500	-0.360000	0.000000 
-1.462500	-0.320000	0.000000 
-1.462500	-0.280000	0.000000 
-1.462500	-0.240000	0.000000 
-1.462500	-0.200000	0.000000 
-1.462500	-0.160000	0.000000 
-1.462500	-0.120000	0.000000 
-1.462500	-0.080000	0.000000 
-1.462500	-0.040000	0.000000 
-1.462500	0.000000	0.000000 
-1.462500	0.040000	0.000000 
-1.462500	0.080000	0.000000 
-1.462500	0.120000	0.000000 
-1.462500	0.160000	0.000000 
-1.462500	0.200000	0.000000 
-1.462500	0.240000	0.000000 
-1.462500	0.280000	0.000000 
-1.462500	0.320000	0.000000 
-1.462500	0.360000	0.000000 
-1.462500	0.400000	0.000000 
-1.462500	0.440000	0.000000 
-1.462500	0.480000	0.000000 
-1.462500	0.520000	0.000000 
-1.462500	0.560000	0.000000 
-1.462500	0.600000	0.000000 
-1.462500	0.640000	0.000000 
-1.462500	0.680000	0.000000 
-1.462500	0.720000	0.000000 
-1.462500	0.760000	0.000000 
-1.462500	0.800000	0.000000 
-1.462500	0.840000	0.000000 
-1.462500	0.880000	0.000000 
-1.462500	0.920000	0.000000 
-1.462500	0.960000	0.000000 
-1.462500	1.000000	0.000000 
-1.425000	-1.000000	0.000000 
-1.425000	-0.960000	0.000000 
-1.425000	-0.920000	0.000000 
-1.425000	-0.880000	0.000000 
-1.425000	-0.840000	0.000000 
-1.425000	-0.800000	0.000000 
-1.425000	-0.760000	0.000000 
-1.425000	-0.720000	0.000000 
-1.425000	-0.680000	0.000000 
-1.425000	-0.640000	0.000000 
-1.425000	-0.600000	0.000000 
-1.425000	-0.560000	0.000000 
-1.425000	-0.520000	0.000000 
-1.425000	-0.480000	0.000000 
-1.425000	-0.440000	0.000000 
-1.425000	-0.400000	0.000000 
-1.425000	-0.360000	0.000000 
-1.425000	-0.320000	0.000000 
-1.425000	-0.280000	0.000000 
-1.425000	-0.240000	0.000000 
-1.425000	-0.200000	0.000000 
-1.425000	-0.160000	0.000000 
-1.425000	-0.120000	0.000000 
-1.425000	-0.080000	0.000000 
-1.425000	-0.040000	0.000000 
-1.425000	0.000000	0.000000 
-1.425000	0.040000	0.000000 
-1.425000	0.080000	0.000000 
-1.425000	0.120000	0.000000 
-1.425000	0.160000	0.000000 
-1.425000	0.200000	0.000000 
-1.425000	0.240000	0.000000 
-1.425000	0.280000	0.000000 
-1.425000	0.320000	0.000000 
-1.425000	0.360000	0.000000 
-1.425000	0.400000	0.000000 
-1.425000	0.440000	0.000000 
-1.425000	0.480000	0.000000 
-1.425000	0.520000	0.000000 
-1.425000	0.560000	0.000000 
-1.425000	0.600000	0.000000 
-1.425000	0.640000	0.000000 
-1.425000	0.680000	0.000000 
-1.425000	0.720000	0.000000 
-1.425000	0.760000	0.000000 
-1.425000	0.800000	0.000000 
-1.425000	0.840000	0.000000 
-1.425000	0.880000	0.000000 
-1.425000	0.920000	0.000000 
-1.425000	0.960000	0.000000 
-1.425000	1.000000	0.000000 
-1.387500	-1.000000	0.000000 
-1.387500	-0.960000	0.000000 
-1.387500	-0.920000	0.000000 
-1.387500	-0.880000	0.000000 
-1.387500	-0.840000	0.000000 
-1.387500	-0.800000	0.000000 
-1.387500	-0.760000	0.000000 
-1.387500	-0.720000	0.000000 
-1.387500	-0.680000	0.000000 
-1.387500	-0.640000	0.000000 
-1.387500	-0.600000	0.000000 
-1.387500	-0.560000	0.000000 
-1.387500	-0.520000	0.000000 
-1.387500	-0.480000	0.000000 
-1.387500	-0.440000	0.000000 
-1.387500	-0.400000	0.000000 
-1.387500	-0.360000	0.000000 
-1.387500	-0.320000	0.000000 
-1.387500	-0.280000	0.000000 
-1.387500	-0.240000	0.000000 
-1.387500	-0.200000	0.000000 
-1.387500	-0.160000	0.000000 
-1.387500	-0.120000	0.000000 
-1.387500	-0.080000	0.000000 
-1.387500	-0.040000	0.000000 
-1.387500	0.000000	0.000000 
-1.387500	0.040000	0.000000 
-1.387500	0.080000	0.000000 
-1.387500	0.120000	0.000000 
-1.387500	0.160000	0.000000 
-1.387500	0.200000	0.000000 
-1.387500	0.240000	0.000000 
-1.387500	0.280000	0.000000 
-1.387500	0.320000	0.000000 
-1.387500	0.360000	0.000000 
-1.387500	0.400000	0.000000 
-1.387500	0.440000	0.000000 
-1.387500	0.480000	0.000000 
-1.387500	0.520000	0.000000 
-1.387500	0.560000	0.000000 
-1.387500	0.600000	0.000000 
-1.387500	0.640000	0.000000 
-1.387500	0.680000	0.000000 
-1.387500	0.720000	0.000000 
-1.387500	0.760000	0.000000 
-1.387500	0.800000	0.000000 
-1.387500	0.840000	0.000000 
-1.387500	0.880000	0.000000 
-1.387500	0.920000	0.000000 
-1.387500	0.960000	0.000000 
-1.387500	1.000000	0.000000 
-1.350000	-1.000000	0.000000 
-1.350000	-0.960000	0.000000 
-1.350000	-0.920000	0.000000 
-1.350000	-0.880000	0.000000 
-1.350000	-0.840000	0.000000 
-1.350000	-0.800000	0.000000 
-1.350000	-0.760000	0.000000 
-1.350000	-0.720000	0.000000 
-1.350000	-0.680000	0.000000 
-1.350000	-0.640000	0.000000 
-1.350000	-0.600000	0.000000 
-1.350000	-0.560000	0.000000 
-1.350000	-0.520000	0.000000 
-1.350000	-0.480000	0.000000 
-1.350000	-0.440000	0.000000 
-1.350000	-0.400000	0.000000 
-1.350000	-0.360000	0.000000 
-1.350000	-0.320000	0.000000 
-1.350000	-0.280000	0.000000 
-1.350000	-0.240000	0.000000 
-1.350000	-0.200000	0.000000 
-1.350000	-0.160000	0.000000 
-1.350000	-0.120000	0.000000 
-1.350000	-0.080000	0.000000 
-1.350000	-0.040000	0.000000 
-1.350000	0.000000	0.000000 
-1.350000	0.040000	0.000000 
-1.350000	0.080000	0.000000 
-1.350000	0.120000	0.000000 
-1.350000	0.160000	0.000000 
-1.350000	0.200000	0.000000 
-1.350000	0.240000	0.000000 
-1.350000	0.280000	0.000000 
-1.350000	0.320000	0.000000 
-1.350000	0.360000	0.000000 
-1.350000	0.400000	0.000000 
-1.350000	0.440000	0.000000 
-1.350000	0.480000	0.000000 
-1.350000	0.520000	0.000000 
-1.350000	0.560000	0.000000 
-1.350000	0.600000	0.000000 
-1.350000	0.640000	0.000000 
-1.350000	0.680000	0.000000 
-1.350000	0.720000	0.000000 
-1.350000	0.760000	0.000000 
-1.350000	0.800000	0.000000 
-1.350000	0.840000	0.000000 
-1.350000	0.880000	0.000000 
-1.350000	0.920000	0.000000 
-1.350000	0.960000	0.000000 
-1.350000	1.000000	0.000000 
-1.312500	-1.000000	0.000000 
-1.312500	-0.960000	0.000000 
-1.312500	-0.920000	0.000000 
-1.312500	-0.880000	0.000000 
-1.312500	-0.840000	0.000000 
-1.312500	-0.800000	0.000000 
-1.312500	-0.760000	0.000000 
-1.312500	-0.720000	0.000000 
-1.312500	-0.680000	0.000000 
-1.312500	-0.640000	0.000000 
-1.312500	-0.600000	0.000000 
-1.312500	-0.560000	0.000000 
-1.312500	-0.520000	0.000000 
-1.312500	-0.480000	0.000000 
-1.312500	-0.440000	0.000000 
-1.312500	-0.400000	0.000000 
-1.312500	-0.360000	0.000000 
-1.312500	-0.320000	0.000000 
-1.312500	-0.280000	0.000000 
-1.312500	-0.240000	0.000000 
-1.312500	-0.200000	0.000000 
-1.312500	-0.160000	0.000000 
-1.312500	-0.120000	0.000000 
-1.312500	-0.080000	0.000000 
-1.312500	-0.040000	0.000000 
-1.312500	0.000000	0.000000 
-1.312500	0.040000	0.000000 
-1.312500	0.080000	0.000000 
-1.312500	0.120000	0.000000 
-1.312500	0.160000	0.000000 
-1.312500	0.200000	0.000000 
-1.312500	0.240000	0.000000 
-1.312500	0.280000	0.000000 
-1.312500	0.320000	0.000000 
-1.312500	0.360000	0.000000 
-1.312500	0.400000	0.000000 
-1.312500	0.440000	0.000000 
-1.312500	0.480000	0.000000 
-1.312500	0.520000	0.000000 
-1.312500	0.560000	0.000000 
-1.312500	0.600000	0.000000 
-1.312500	0.640000	0.000000 
-1.312500	0.680000	0.000000 
-1.312500	0.720000	0.000000 
-1.312500	0.760000	0.000000 
-1.312500	0.800000	0.000000 
-1.312500	0.840000	0.000000 
-1.312500	0.880000	0.000000 
-1.312500	0.920000	0.000000 
-1.312500	0.960000	0.000000 
-1.312500	1.000000	0.000000 
-1.275000	-1.000000	0.000000 
-1.275000	-0.960000	0.000000 
-1.275000	-0.920000	0.000000 
-1.275000	-0.880000	0.000000 
-1.275000	-0.840000	0.000000 
-1.275000	-0.800000	0.000000 
-1.275000	-0.760000	0.000000 
-1.275000	-0.720000	0.000000 
-1.275000	-0.680000	0.000000 
-1.275000	-0.640000	0.000000 
-1.275000	-0.600000	0.000000 
-1.275000	-0.560000	0.000000 
-1.275000	-0.520000	0.000000 
-1.275000	-0.480000	0.000000 
-1.275000	-0.440000	0.000000 
-1.275000	-0.400000	0.000000 
-1.275000	-0.360000	0.000000 
-1.275000	-0.320000	0.000000 
-1.275000	-0.280000	0.000000 
-1.275000	-0.240000	0.000000 
-1.275000	-0.200000	0.000000 
-1.275000	-0.160000	0.000000 
-1.275000	-0.120000	0.000000 
-1.275000	-0.080000	0.000000 
-1.275000	-0.040000	0.000000 
-1.275000	0.000000	0.000000 
-1.275000	0.040000	0.000000 
-1.275000	0.080000	0.000000 
-1.275000	0.120000	0.000000 
-1.275000	0.160000	0.000000 
-1.275000	0.200000	0.000000 
-1.275000	0.240000	0.000000 
-1.275000	0.280000	0.000000 
-1.275000	0.320000	0.000000 
-1.275000	0.360000	0.000000 
-1.275000	0.400000	0.000000 
-1.275000	0.440000	0.000000 
-1.275000	0.480000	0.000000 
-1.275000	0.520000	0.000000 
-1.275000	0.560000	0.000000 
-1.275000	0.600000	0.000000 
-1.275000	0.640000	0.000000 
-1.275000	0.680000	0.000000 
-1.275000	0.720000	0.000000 
-1.275000	0.760000	0.000000 
-1.275000	0.800000	0.000000 
-1.275000	0.840000	0.000000 
-1.275000	0.880000	0.000000 
-1.275000	0.920000	0.000000 
-1.275000	0.960000	0.000000 
-1.275000	1.000000	0.000000 
-1.237500	-1.000000	0.000000 
-1.237500	-0.960000	0.000000 
-1.237500	-0.920000	0.000000 
-1.237500	-0.880000	0.000000 
-1.237500	-0.840000	0.000000 
-1.237500	-0.800000	0.000000 
-1.237500	-0.760000	0.000000 
-1.237500	-0.720000	0.000000 
-1.237500	-0.680000	0.000000 
-1.237500	-0.640000	0.000000 
-1.237500	-0.600000	0.000000 
-1.237500	-0.560000	0.000000 
-1.237500	-0.520000	0.000000 
-1.237500	-0.480000	0.000000 
-1.237500	-0.440000	0.000000 
-1.237500	-0.400000	0.000000 
-1.237500	-0.360000	0.000000 
-1.237500	-0.320000	0.000000 
-1.237500	-0.280000	0.000000 
-1.237500	-0.240000	0.000000 
-1.237500	-0.200000	0.000000 
-1.237500	-0.160000	0.000000 
-1.237500	-0.120000	0.000000 
-1.237500	-0.080000	0.000000 
-1.237500	-0.040000	0.000000 
-1.237500	0.000000	0.000000 
-1.237500	0.040000	0.000000 
-1.237500	0.080000	0.000000 
-1.237500	0.120000	0.000000 
-1.237500	0.160000	0.000000 
-1.237500	0.200000	0.000000 
-1.237500	0.240000	0.000000 
-1.237500	0.280000	0.000000 
-1.237500	0.320000	0.000000 
-1.237500	0.360000	0.000000 
-1.237500	0.400000	0.000000 
-1.237500	0.440000	0.000000 
-1.237500	0.480000	0.000000 
-1.237500	0.520000	0.000000 
-1.237500	0.560000	0.000000 
-1.237500	0.600000	0.000000 
-1.237500	0.640000	0.000000 
-1.237500	0.680000	0.000000 
-1.237500	0.720000	0.000000 
-1.237500	0.760000	0.000000 
-1.237500	0.800000	0.000000 
-1.237500	0.840000	0.000000 
-1.237500	0.880000	0.000000 
-1.237500	0.920000	0.000000 
-1.237500	0.960000	0.000000 
-1.237500	1.000000	0.000000 
-1.200000	-1.000000	0.000000 
-1.200000	-0.960000	0.000000 
-1.200000	-0.920000	0.000000 
-1.200000	-0.880000	0.000000 
-1.200000	-0.840000	0.000000 
-1.200000	-0.800000	0.000000 
-1.200000	-0.760000	0.000000 
-1.200000	-0.720000	0.000000 
-1.200000	-0.680000	0.000000 
-1.200000	-0.640000	0.000000 
-1.200000	-0.600000	0.000000 
-1.200000	-0.560000	0.000000 
-1.200000	-0.520000	0.000000 
-1.200000	-0.480000	0.000000 
-1.200000	-0.440000	0.000000 
-1.200000	-0.400000	0.000000 
-1.200000	-0.360000	0.000000 
-1.200000	-0.320000	0.000000 
-1.200000	-0.280000	0.000000 
-1.200000	-0.240000	0.000000 
-1.200000	-0.200000	0.000000 
-1.200000	-0.160000	0.000000 
-1.200000	-0.120000	0.000000 
-1.200000	-0.080000	0.000000 
-1.200000	-0.040000	0.000000 
-1.200000	0.000000	0.000000 
-1.200000	0.040000	0.000000 
-1.200000	0.080000	0.000000 
-1.200000	0.120000	0.000000 
-1.200000	0.160000	0.000000 
-1.200000	0.200000	0.000000 
-1.200000	0.240000	0.000000 
-1.200000	0.280000	0.000000 
-1.200000	0.320000	0.000000 
-1.200000	0.360000	0.000000 
-1.200000	0.400000	0.000000 
-1.200000	0.440000	0.000000 
-1.200000	0.480000	0.000000 
-1.200000	0.520000	0.000000 
-1.200000	0.560000	0.000000 
-1.200000	0.600000	0.000000 
-1.200000	0.640000	0.000000 
-1.200000	0.680000	0.000000 
-1.200000	0.720000	0.000000 
-1.200000	0.760000	0.000000 
-1.200000	0.800000	0.000000 
-1.200000	0.840000	0.000000 
-1.200000	0.880000	0.000000 
-1.200000	0.920000	0.000000 
-1.200000	0.960000	0.000000 
-1.200000	1.000000	0.000000 
-1.162500	-1.000000	0.000000 
-1.162500	-0.960000	0.000000 
-1.162500	-0.920000	0.000000 
-1.162500	-0.880000	0.000000 
-1.162500	-0.840000	0.000000 
-1.162500	-0.800000	0.000000 
-1.162500	-0.760000	0.000000 
-1.162500	-0.720000	0.000000 
-1.162500	-0.680000	0.000000 
-1.162500	-0.640000	0.000000 
-1.162500	-0.600000	0.000000 
-1.162500	-0.560000	0.000000 
-1.162500	-0.520000	0.000000 
-1.162500	-0.480000	0.000000 
-1.162500	-0.440000	0.000000 
-1.162500	-0.400000	0.000000 
-1.162500	-0.360000	0.000000 
-1.162500	-0.320000	0.000000 
-1.162500	-0.280000	0.000000 
-1.162500	-0.240000	0.000000 
-1.162500	-0.200000	0.000000 
-1.162500	-0.160000	0.000000 
-1.162500	-0.120000	0.000000 
-1.162500	-0.080000	0.000000 
-1.162500	-0.040000	0.000000 
-1.162500	0.000000	0.000000 
-1.162500	0.040000	0.000000 
-1.162500	0.080000	0.000000 
-1.162500	0.120000	0.000000 
-1.162500	0.160000	0.000000 
-1.162500	0.200000	0.000000 
-1.162500	0.240000	0.000000 
-1.162500	0.280000	0.000000 
-1.162500	0.320000	0.000000 
-1.162500	0.360000	0.000000 
-1.162500	0.400000	0.000000 
-1.162500	0.440000	0.000000 
-1.162500	0.480000	0.000000 
-1.162500	0.520000	0.000000 
-1.162500	0.560000	0.000000 
-1.162500	0.600000	0.000000 
-1.162500	0.640000	0.000000 
-1.162500	0.680000	0.000000 
-1.162500	0.720000	0.000000 
-1.162500	0.760000	0.000000 
-1.162500	0.800000	0.000000 
-1.162500	0.840000	0.000000 
-1.162500	0.880000	0.000000 
-1.162500	0.920000	0.000000 
-1.162500	0.960000	0.000000 
-1.162500	1.000000	0.000000 
-1.125000	-1.000000	0.000000 
-1.125000	-0.960000	0.000000 
-1.125000	-0.920000	0.000000 
-1.125000	-0.880000	0.000000 
-1.125000	-0.840000	0.000000 
-1.125000	-0.800000	0.000000 
-1.125000	-0.760000	0.000000 
-1.125000	-0.720000	0.000000 
-1.125000	-0.680000	0.000000 
-1.125000	-0.640000	0.000000 
-1.125000	-0.600000	0.000000 
-1.125000	-0.560000	0.000000 
-1.125000	-0.520000	0.000000 
-1.125000	-0.480000	0.000000 
-1.125000	-0.440000	0.000000 
-1.125000	-0.400000	0.000000 
-1.125000	-0.360000	0.000000 
-1.125000	-0.320000	0.000000 
-1.125000	-0.280000	0.000000 
-1.125000	-0.240000	0.000000 
-1.125000	-0.200000	0.000000 
-1.125000	-0.160000	0.000000 
-1.125000	-0.120000	0.000000 
-1.125000	-0.080000	0.000000 
-1.125000	-0.040000	0.000000 
-1.125000	0.000000	0.000000 
-1.125000	0.040000	0.000000 
-1.125000	0.080000	0.000000 
-1.125000	0.120000	0.000000 
-1.125000	0.160000	0.000000 
-1.125000	0.200000	0.000000 
-1.125000	0.240000	0.000000 
-1.125000	0.280000	0.000000 
-1.125000	0.320000	0.000000 
-1.125000	0.360000	0.000000 
-1.125000	0.400000	0.000000 
-1.125000	0.440000	0.000000 
-1.125000	0.480000	0.000000 
-1.125000	0.520000	0.000000 
-1.125000	0.560000	0.000000 
-1.125000	0.600000	0.000000 
-1.125000	0.640000	0.000000 
-1.125000	0.680000	0.000000 
-1.125000	0.720000	0.000000 
-1.125000	0.760000	0.000000 
-1.125000	0.800000	0.000000 
-1.125000	0.840000	0.000000 
-1.125000	0.880000	0.000000 
-1.125000	0.920000	0.000000 
-1.125000	0.960000	0.000000 
-1.125000	1.000000	0.000000 
-1.087500	-1.000000	0.000000 
-1.087500	-0.960000	0.000000 
-1.087500	-0.920000	0.000000 
-1.087500	-0.880000	0.000000 
-1.087500	-0.840000	0.000000 
-1.087500	-0.800000	0.000000 
-1.087500	-0.760000	0.000000 
-1.087500	-0.720000	0.000000 
-1.087500	-0.680000	0.000000 
-1.087500	-0.640000	0.000000 
-1.087500	-0.600000	0.000000 
-1.087500	-0.560000	0.000000 
-1.087500	-0.520000	0.000000 
-1.087500	-0.480000	0.000000 
-1.087500	-0.440000	0.000000 
-1.087500	-0.400000	0.000000 
-1.087500	-0.360000	0.000000 
-1.087500	-0.320000	0.000000 
-1.087500	-0.280000	0.000000 
-1.087500	-0.240000	0.000000 
-1.087500	-0.200000	0.000000 
-1.087500	-0.160000	0.000000 
-1.087500	-0.120000	0.000000 
-1.087500	-0.080000	0.000000 
-1.087500	-0.040000	0.000000 
-1.087500	0.000000	0.000000 
-1.087500	0.040000	0.000000 
-1.087500	0.080000	0.000000 
-1.087500	0.120000	0.000000 
-1.087500	0.160000	0.000000 
-1.087500	0.200000	0.000000 
-1.087500	0.240000	0.000000 
-1.087500	0.280000	0.000000 
-1.087500	0.320000	0.000000 
-1.087500	0.360000	0.000000 
-1.087500	0.400000	0.000000 
-1.087500	0.440000	0.000000 
-1.087500	0.480000	0.000000 
-1.087500	0.520000	0.000000 
-1.087500	0.560000	0.000000 
-1.087500	0.600000	0.000000 
-1.087500	0.640000	0.000000 
-1.087500	0.680000	0.000000 
-1.087500	0.720000	0.000000 
-1.087500	0.760000	0.000000 
-1.087500	0.800000	0.000000 
-1.087500	0.840000	0.000000 
-1.087500	0.880000	0.000000 
-1.087500	0.920000	0.000000 
-1.087500	0.960000	0.000000 
-1.087500	1.000000	0.000000 
-1.050000	-1.000000	0.000000 
-1.050000	-0.960000	0.000000 
-1.050000	-0.920000	0.000000 
-1.050000	-0.880000	0.000000 
-1.050000	-0.840000	0.000000 
-1.050000	-0.800000	0.000000 
-1.050000	-0.760000	0.000000 
-1.050000	-0.720000	0.000000 
-1.050000	-0.680000	0.000000 
-1.050000	-0.640000	0.000000 
-1.050000	-0.600000	0.000000 
-1.050000	-0.560000	0.000000 
-1.050000	-0.520000	0.000000 
-1.050000	-0.480000	0.000000 
-1.050000	-0.440000	0.000000 
-1.050000	-0.400000	0.000000 
-1.050000	-0.360000	0.000000 
-1.050000	-0.320000	0.000000 
-1.050000	-0.280000	0.000000 
-1.050000	-0.240000	0.000000 
-1.050000	-0.200000	0.000000 
-1.050000	-0.160000	0.000000 
-1.050000	-0.120000	0.000000 
-1.050000	-0.080000	0.000000 
-1.050000	-0.040000	0.000000 
-1.050000	0.000000	0.000000 
-1.050000	0.040000	0.000000 
-1.050000	0.080000	0.000000 
-1.050000	0.120000	0.000000 
-1.050000	0.160000	0.000000 
-1.050000	0.200000	0.000000 
-1.050000	0.240000	0.000000 
-1.050000	0.280000	0.000000 
-1.050000	0.320000	0.000000 
-1.050000	0.360000	0.000000 
-1.050000	0.400000	0.000000 
-1.050000	0.440000	0.000000 
-1.050000	0.480000	0.000000 
-1.050000	0.520000	0.000000 
-1.050000	0.560000	0.000000 
-1.050000	0.600000	0.000000 
-1.050000	0.640000	0.000000 
-1.050000	0.680000	0.000000 
-1.050000	0.720000	0.000000 
-1.050000	0.760000	0.000000 
-1.050000	0.800000	0.000000 
-1.050000	0.840000	0.000000 
-1.050000	0.880000	0.000000 
-1.050000	0.920000	0.000000 
-1.050000	0.960000	0.000000 
-1.050000	1.000000	0.000000 
-1.012500	-1.000000	0.000000 
-1.012500	-0.960000	0.000000 
-1.012500	-0.920000	0.000000 
-1.012500	-0.880000	0.000000 
-1.012500	-0.840000	0.000000 
-1.012500	-0.800000	0.000000 
-1.012500	-0.760000	0.000000 
-1.012500	-0.720000	0.000000 
-1.012500	-0.680000	0.000000 
-1.012500	-0.640000	0.000000 
-1.012500	-0.600000	0.000000 
-1.012500	-0.560000	0.000000 
-1.012500	-0.520000	0.000000 
-1.012500	-0.480000	0.000000 
-1.012500	-0.440000	0.000000 
-1.012500	-0.400000	0.000000 
-1.012500	-0.360000	0.000000 
-1.012500	-0.320000	0.000000 
-1.012500	-0.280000	0.000000 
-1.012500	-0.240000	0.000000 
-1.012500	-0.200000	0.000000 
-1.012500	-0.160000	0.000000 
-1.012500	-0.120000	0.000000 
-1.012500	-0.080000	0.000000 
-1.012500	-0.040000	0.000000 
-1.012500	0.000000	0.000000 
-1.012500	0.040000	0.000000 
-1.012500	0.080000	0.000000 
-1.012500	0.120000	0.000000 
-1.012500	0.160000	0.000000 
-1.012500	0.200000	0.000000 
-1.012500	0.240000	0.000000 
-1.012500	0.280000	0.000000 
-1.012500	0.320000	0.000000 
-1.012500	0.360000	0.000000 
-1.012500	0.400000	0.000000 
-1.012500	0.440000	0.000000 
-1.012500	0.480000	0.000000 
-1.012500	0.520000	0.000000 
-1.012500	0.560000	0.000000 
-1.012500	0.600000	0.000000 
-1.012500	0.640000	0.000000 
-1.012500	0.680000	0.000000 
-1.012500	0.720000	0.000000 
-1.012500	0.760000	0.000000 
-1.012500	0.800000	0.000000 
-1.012500	0.840000	0.000000 
-1.012500	0.880000	0.000000 
-1.012500	0.920000	0.000000 
-1.012500	0.960000	0.000000 
-1.012500	1.000000	0.000000 
-0.975000	-1.000000	0.000000 
-0.975000	-0.960000	0.000000 
-0.975000	-0.920000	0.000000 
-0.975000	-0.880000	0.000000 
-0.975000	-0.840000	0.000000 
-0.975000	-0.800000	0.000000 
-0.975000	-0.760000	0.000000 
-0.975000	-0.720000	0.000000 
-0.975000	-0.680000	0.000000 
-0.975000	-0.640000	0.000000 
-0.975000	-0.600000	0.000000 
-0.975000	-0.560000	0.000000 
-0.975000	-0.520000	0.000000 
-0.975000	-0.480000	0.000000 
-0.975000	-0.440000	0.000000 
-0.975000	-0.400000	0.000000 
-0.975000	-0.360000	0.000000 
-0.975000	-0.320000	0.000000 
-0.975000	-0.280000	0.000000 
-0.975000	-0.240000	0.000000 
-0.975000	-0.200000	0.000000 
-0.975000	-0.160000	0.000000 
-0.975000	-0.120000	0.000000 
-0.975000	-0.080000	0.000000 
-0.975000	-0.040000	0.000000 
-0.975000	0.000000	0.000000 
-0.975000	0.040000	0.000000 
-0.975000	0.080000	0.000000 
-0.975000	0.120000	0.000000 
-0.975000	0.160000	0.000000 
-0.975000	0.200000	0.000000 
-0.975000	0.240000	0.000000 
-0.975000	0.280000	0.000000 
-0.975000	0.320000	0.000000 
-0.975000	0.360000	0.000000 
-0.975000	0.400000	0.000000 
-0.975000	0.440000	0.000000 
-0.975000	0.480000	0.000000 
-0.975000	0.520000	0.000000 
-0.975000	0.560000	0.000000 
-0.975000	0.600000	0.000000 
-0.975000	0.640000	0.000000 
-0.975000	0.680000	0.000000 
-0.975000	0.720000	0.000000 
-0.975000	0.760000	0.000000 
-0.975000	0.800000	0.000000 
-0.975000	0.840000	0.000000 
-0.975000	0.880000	0.000000 
-0.975000	0.920000	0.000000 
-0.975000	0.960000	0.000000 
-0.975000	1.000000	0.000000 
-0.937500	-1.000000	0.000000 
-0.937500	-0.960000	0.000000 
-0.937500	-0.920000	0.000000 
-0.937500	-0.880000	0.000000 
-0.937500	-0.840000	0.000000 
-0.937500	-0.800000	0.000000 
-0.937500	-0.760000	0.000000 
-0.937500	-0.720000	0.000000 
-0.937500	-0.680000	0.000000 
-0.937500	-0.640000	0.000000 
-0.937500	-0.600000	0.000000 
-0.937500	-0.560000	0.000000 
-0.937500	-0.520000	0.000000 
-0.937500	-0.480000	0.000000 
-0.937500	-0.440000	0.000000 
-0.937500	-0.400000	0.000000 
-0.937500	-0.360000	0.000000 
-0.937500	-0.320000	0.000000 
-0.937500	-0.280000	0.000000 
-0.937500	-0.240000	0.000000 
-0.937500	-0.200000	0.000000 
-0.937500	-0.160000	0.000000 
-0.937500	-0.120000	0.000000 
-0.937500	-0.080000	0.000000 
-0.937500	-0.040000	0.000000 
-0.937500	0.000000	0.000000 
-0.937500	0.040000	0.000000 
-0.937500	0.080000	0.000000 
-0.937500	0.120000	0.000000 
-0.937500	0.160000	0.000000 
-0.937500	0.200000	0.000000 
-0.937500	0.240000	0.000000 
-0.937500	0.280000	0.000000 
-0.937500	0.320000	0.000000 
-0.937500	0.360000	0.000000 
-0.937500	0.400000	0.000000 
-0.937500	0.440000	0.000000 
-0.937500	0.480000	0.000000 
-0.937500	0.520000	0.000000 
-0.937500	0.560000	0.000000 
-0.937500	0.600000	0.000000 
-0.937500	0.640000	0.000000 
-0.937500	0.680000	0.000000 
-0.937500	0.720000	0.000000 
-0.937500	0.760000	0.000000 
-0.937500	0.800000	0.000000 
-0.937500	0.840000	0.000000 
-0.937500	0.880000	0.000000 
-0.937500	0.920000	0.000000 
-0.937500	0.960000	0.000000 
-0.937500	1.000000	0.000000 
-0.900000	-1.000000	0.000000 
-0.900000	-0.960000	0.000000 
-0.900000	-0.920000	0.000000 
-0.900000	-0.880000	0.000000 
-0.900000	-0.840000	0.000000 
-0.900000	-0.800000	0.000000 
-0.900000	-0.760000	0.000000 
-0.900000	-0.720000	0.000000 
-0.900000	-0.680000	0.000000 
-0.900000	-0.640000	0.000000 
-0.900000	-0.600000	0.000000 
-0.900000	-0.560000	0.000000 
-0.900000	-0.520000	0.000000 
-0.900000	-0.480000	0.000000 
-0.900000	-0.440000	0.000000 
-0.900000	-0.400000	0.000000 
-0.900000	-0.360000	0.000000 
-0.900000	-0.320000	0.000000 
-0.900000	-0.280000	0.000000 
-0.900000	-0.240000	0.000000 
-0.900000	-0.200000	0.000000 
-0.900000	-0.160000	0.000000 
-0.900000	-0.120000	0.000000 
-0.900000	-0.080000	0.000000 
-0.900000	-0.040000	0.000000 
-0.900000	0.000000	0.000000 
-0.900000	0.040000	0.000000 
-0.900000	0.080000	0.000000 
-0.900000	0.120000	0.000000 
-0.900000	0.160000	0.000000 
-0.900000	0.200000	0.000000 
-0.900000	0.240000	0.000000 
-0.900000	0.280000	0.000000 
-0.900000	0.320000	0.000000 
-0.900000	0.360000	0.000000 
-0.900000	0.400000	0.000000 
-0.900000	0.440000	0.000000 
-0.900000	0.480000	0.000000 
-0.900000	0.520000	0.000000 
-0.900000	0.560000	0.000000 
-0.900000	0.600000	0.000000 
-0.900000	0.640000	0.000000 
-0.900000	0.680000	0.000000 
-0.900000	0.720000	0.000000 
-0.900000	0.760000	0.000000 
-0.900000	0.800000	0.000000 
-0.900000	0.840000	0.000000 
-0.900000	0.880000	0.000000 
-0.900000	0.920000	0.000000 
-0.900000	0.960000	0.000000 
-0.900000	1.000000	0.000000 
-0.862500	-1.000000	0.000000 
-0.862500	-0.960000	0.000000 
-0.862500	-0.920000	0.000000 
-0.862500	-0.880000	0.000000 
-0.862500	-0.840000	0.000000 
-0.862500	-0.800000	0.000000 
-0.862500	-0.760000	0.000000 
-0.862500	-0.720000	0.000000 
-0.862500	-0.680000	0.000000 
-0.862500	-0.640000	0.000000 
-0.862500	-0.600000	0.000000 
-0.862500	-0.560000	0.000000 
-0.862500	-0.520000	0.000000 
-0.862500	-0.480000	0.000000 
-0.862500	-0.440000	0.000000 
-0.862500	-0.400000	0.000000 
-0.862500	-0.360000	0.000000 
-0.862500	-0.320000	0.000000 
-0.862500	-0.280000	0.000000 
-0.862500	-0.240000	0.000000 
-0.862500	-0.200000	0.000000 
-0.862500	-0.160000	0.000000 
-0.862500	-0.120000	0.000000 
-0.862500	-0.080000	0.000000 
-0.862500	-0.040000	0.000000 
-0.862500	0.000000	0.000000 
-0.862500	0.040000	0.000000 
-0.862500	0.080000	0.000000 
-0.862500	0.120000	0.000000 
-0.862500	0.160000	0.000000 
-0.862500	0.200000	0.000000 
-0.862500	0.240000	0.000000 
-0.862500	0.280000	0.000000 
-0.862500	0.320000	0.000000 
-0.862500	0.360000	0.000000 
-0.862500	0.400000	0.000000 
-0.862500	0.440000	0.000000 
-0.862500	0.480000	0.000000 
-0.862500	0.520000	0.000000 
-0.862500	0.560000	0.000000 
-0.862500	0.600000	0.000000 
-0.862500	0.640000	0.000000 
-0.862500	0.680000	0.000000 
-0.862500	0.720000	0.000000 
-0.862500	0.760000	0.000000 
-0.862500	0.800000	0.000000 
-0.862500	0.840000	0.000000 
-0.862500	0.880000	0.000000 
-0.862500	0.920000	0.000000 
-0.862500	0.960000	0.000000 
-0.862500	1.000000	0.000000 
-0.825000	-1.000000	0.000000 
-0.825000	-0.960000	0.000000 
-0.825000	-0.920000	0.000000 
-0.825000	-0.880000	0.000000 
-0.825000	-0.840000	0.000000 
-0.825000	-0.800000	0.000000 
-0.825000	-0.760000	0.000000 
-0.825000	-0.720000	0.000000 
-0.825000	-0.680000	0.000000 
-0.825000	-0.640000	0.000000 
-0.825000	-0.600000	0.000000 
-0.825000	-0.560000	0.000000 
-0.825000	-0.520000	0.000000 
-0.825000	-0.480000	0.000000 
-0.825000	-0.440000	0.000000 
-0.825000	-0.400000	0.000000 
-0.825000	-0.360000	0.000000 
-0.825000	-0.320000	0.000000 
-0.825000	-0.280000	0.000000 
-0.825000	-0.240000	0.000000 
-0.825000	-0.200000	0.000000 
-0.825000	-0.160000	0.000000 
-0.825000	-0.120000	0.000000 
-0.825000	-0.080000	0.000000 
-0.825000	-0.040000	0.000000 
-0.825000	0.000000	0.000000 
-0.825000	0.040000	0.000000 
-0.825000	0.080000	0.000000 
-0.825000	0.120000	0.000000 
-0.825000	0.160000	0.000000 
-0.825000	0.200000	0.000000 
-0.825000	0.240000	0.000000 
-0.825000	0.280000	0.000000 
-0.825000	0.320000	0.000000 
-0.825000	0.360000	0.000000 
-0.825000	0.400000	0.000000 
-0.825000	0.440000	0.000000 
-0.825000	0.480000	0.000000 
-0.825000	0.520000	0.000000 
-0.825000	0.560000	0.000000 
-0.825000	0.600000	0.000000 
-0.825000	0.640000	0.000000 
-0.825000	0.680000	0.000000 
-0.825000	0.720000	0.000000 
-0.825000	0.760000	0.000000 
-0.825000	0.800000	0.000000 
-0.825000	0.840000	0.000000 
-0.825000	0.880000	0.000000 
-0.825000	0.920000	0.000000 
-0.825000	0.960000	0.000000 
-0.825000	1.000000	0.000000 
-0.787500	-1.000000	0.000000 
-0.787500	-0.960000	0.000000 
-0.787500	-0.920000	0.000000 
-0.787500	-0.880000	0.000000 
-0.787500	-0.840000	0.000000 
-0.787500	-0.800000	0.000000 
-0.787500	-0.760000	0.000000 
-0.787500	-0.720000	0.000000 
-0.787500	-0.680000	0.000000 
-0.787500	-0.640000	0.000000 
-0.787500	-0.600000	0.000000 
-0.787500	-0.560000	0.000000 
-0.787500	-0.520000	0.000000 
-0.787500	-0.480000	0.000000 
-0.787500	-0.440000	0.000000 
-0.787500	-0.400000	0.000000 
-0.787500	-0.360000	0.000000 
-0.787500	-0.320000	0.000000 
-0.787500	-0.280000	0.000000 
-0.787500	-0.240000	0.000000 
-0.787500	-0.200000	0.000000 
-0.787500	-0.160000	0.000000 
-0.787500	-0.120000	0.000000 
-0.787500	-0.080000	0.000000 
-0.787500	-0.040000	0.000000 
-0.787500	0.000000	0.000000 
-0.787500	0.040000	0.000000 
-0.787500	0.080000	0.000000 
-0.787500	0.120000	0.000000 
-0.787500	0.160000	0.000000 
-0.787500	0.200000	0.000000 
-0.787500	0.240000	0.000000 
-0.787500	0.280000	0.000000 
-0.787500	0.320000	0.000000 
-0.787500	0.360000	0.000000 
-0.787500	0.400000	0.000000 
-0.787500	0.440000	0.000000 
-0.787500	0.480000	0.000000 
-0.787500	0.520000	0.000000 
-0.787500	0.560000	0.000000 
-0.787500	0.600000	0.000000 
-0.787500	0.640000	0.000000 
-0.787500	0.680000	0.000000 
-0.787500	0.720000	0.000000 
-0.787500	0.760000	0.000000 
-0.787500	0.800000	0.000000 
-0.787500	0.840000	0.000000 
-0.787500	0.880000	0.000000 
-0.787500	0.920000	0.000000 
-0.787500	0.960000	0.000000 
-0.787500	1.000000	0.000000 
-0.750000	-1.000000	0.000000 
-0.750000	-0.960000	0.000000 
-0.750000	-0.920000	0.000000 
-0.750000	-0.880000	0.000000 
-0.750000	-0.840000	0.000000 
-0.750000	-0.800000	0.000000 
-0.750000	-0.760000	0.000000 
-0.750000	-0.720000	0.000000 
-0.750000	-0.680000	0.000000 
-0.750000	-0.640000	0.000000 
-0.750000	-0.600000	0.000000 
-0.750000	-0.560000	0.000000 
-0.750000	-0.520000	0.000000 
-0.750000	-0.480000	0.000000 
-0.750000	-0.440000	0.000000 
-0.750000	-0.400000	0.000000 
-0.750000	-0.360000	0.000000 
-0.750000	-0.320000	0.000000 
-0.750000	-0.280000	0.000000 
-0.750000	-0.240000	0.000000 
-0.750000	-0.200000	0.000000 
-0.750000	-0.160000	0.000000 
-0.750000	-0.120000	0.000000 
-0.750000	-0.080000	0.000000 
-0.750000	-0.040000	0.000000 
-0.750000	0.000000	0.000000 
-0.750000	0.040000	0.000000 
-0.750000	0.080000	0.000000 
-0.750000	0.120000	0.000000 
-0.750000	0.160000	0.000000 
-0.750000	0.200000	0.000000 
-0.750000	0.240000	0.000000 
-0.750000	0.280000	0.000000 
-0.750000	0.320000	0.000000 
-0.750000	0.360000	0.000000 
-0.750000	0.400000	0.000000 
-0.750000	0.440000	0.000000 
-0.750000	0.480000	0.000000 
-0.750000	0.520000	0.000000 
-0.750000	0.560000	0.000000 
-0.750000	0.600000	0.000000 
-0.750000	0.640000	0.000000 
-0.750000	0.680000	0.000000 
-0.750000	0.720000	0.000000 
-0.750000	0.760000	0.000000 
-0.750000	0.800000	0.000000 
-0.750000	0.840000	0.000000 
-0.750000	0.880000	0.000000 
-0.750000	0.920000	0.000000 
-0.750000	0.960000	0.000000 
-0.750000	1.000000	0.000000 
-0.712500	-1.000000	0.000000 
-0.712500	-0.960000	0.000000 
-0.712500	-0.920000	0.000000 
-0.712500	-0.880000	0.000000 
-0.712500	-0.840000	0.000000 
-0.712500	-0.800000	0.000000 
-0.712500	-0.760000	0.000000 
-0.712500	-0.720000	0.000000 
-0.712500	-0.680000	0.000000 
-0.712500	-0.640000	0.000000 
-0.712500	-0.600000	0.000000 
-0.712500	-0.560000	0.000000 
-0.712500	-0.520000	0.000000 
-0.712500	-0.480000	0.000000 
-0.712500	-0.440000	0.000000 
-0.712500	-0.400000	0.000000 
-0.712500	-0.360000	0.000000 
-0.712500	-0.320000	0.000000 
-0.712500	-0.280000	0.000000 
-0.712500	-0.240000	0.000000 
-0.712500	-0.200000	0.000000 
-0.712500	-0.160000	0.000000 
-0.712500	-0.120000	0.000000 
-0.712500	-0.080000	0.000000 
-0.712500	-0.040000	0.000000 
-0.712500	0.000000	0.000000 
-0.712500	0.040000	0.000000 
-0.712500	0.080000	0.000000 
-0.712500	0.120000	0.000000 
-0.712500	0.160000	0.000000 
-0.712500	0.200000	0.000000 
-0.712500	0.240000	0.000000 
-0.712500	0.280000	0.000000 
-0.712500	0.320000	0.000000 
-0.712500	0.360000	0.000000 
-0.712500	0.400000	0.000000 
-0.712500	0.440000	0.000000 
-0.712500	0.480000	0.000000 
-0.712500	0.520000	0.000000 
-0.712500	0.560000	0.000000 
-0.712500	0.600000	0.000000 
-0.712500	0.640000	0.000000 
-0.712500	0.680000	0.000000 
-0.712500	0.720000	0.000000 
-0.712500	0.760000	0.000000 
-0.712500	0.800000	0.000000 
-0.712500	0.840000	0.000000 
-0.712500	0.880000	0.000000 
-0.712500	0.920000	0.000000 
-0.712500	0.960000	0.000000 
-0.712500	1.000000	0.000000 
-0.675000	-1.000000	0.000000 
-0.675000	-0.960000	0.000000 
-0.675000	-0.920000	0.000000 
-0.675000	-0.880000	0.000000 
-0.675000	-0.840000	0.000000 
-0.675000	-0.800000	0.000000 
-0.675000	-0.760000	0.000000 
-0.675000	-0.720000	0.000000 
-0.675000	-0.680000	0.000000 
-0.675000	-0.640000	0.000000 
-0.675000	-0.600000	0.000000 
-0.675000	-0.560000	0.000000 
-0.675000	-0.520000	0.000000 
-0.675000	-0.480000	0.000000 
-0.675000	-0.440000	0.000000 
-0.675000	-0.400000	0.000000 
-0.675000	-0.360000	0.000000 
-0.675000	-0.320000	0.000000 
-0.675000	-0.280000	0.000000 
-0.675000	-0.240000	0.000000 
-0.675000	-0.200000	0.000000 
-0.675000	-0.160000	0.000000 
-0.675000	-0.120000	0.000000 
-0.675000	-0.080000	0.000000 
-0.675000	-0.040000	0.000000 
-0.675000	0.000000	0.000000 
-0.675000	0.040000	0.000000 
-0.675000	0.080000	0.000000 
-0.675000	0.120000	0.000000 
-0.675000	0.160000	0.000000 
-0.675000	0.200000	0.000000 
-0.675000	0.240000	0.000000 
-0.675000	0.280000	0.000000 
-0.675000	0.320000	0.000000 
-0.675000	0.360000	0.000000 
-0.675000	0.400000	0.000000 
-0.675000	0.440000	0.000000 
-0.675000	0.480000	0.000000 
-0.675000	0.520000	0.000000 
-0.675000	0.560000	0.000000 
-0.675000	0.600000	0.000000 
-0.675000	0.640000	0.000000 
-0.675000	0.680000	0.000000 
-0.675000	0.720000	0.000000 
-0.675000	0.760000	0.000000 
-0.675000	0.800000	0.000000 
-0.675000	0.840000	0.000000 
-0.675000	0.880000	0.000000 
-0.675000	0.920000	0.000000 
-0.675000	0.960000	0.000000 
-0.675000	1.000000	0.000000 
-0.637500	-1.000000	0.000000 
-0.637500	-0.960000	0.000000 
-0.637500	-0.920000	0.000000 
-0.637500	-0.880000	0.000000 
-0.637500	-0.840000	0.000000 
-0.637500	-0.800000	0.000000 
-0.637500	-0.760000	0.000000 
-0.637500	-0.720000	0.000000 
-0.637500	-0.680000	0.000000 
-0.637500	-0.640000	0.000000 
-0.637500	-0.600000	0.000000 
-0.637500	-0.560000	0.000000 
-0.637500	-0.520000	0.000000 
-0.637500	-0.480000	0.000000 
-0.637500	-0.440000	0.000000 
-0.637500	-0.400000	0.000000 
-0.637500	-0.360000	0.000000 
-0.637500	-0.320000	0.000000 
-0.637500	-0.280000	0.000000 
-0.637500	-0.240000	0.000000 
-0.637500	-0.200000	0.000000 
-0.637500	-0.160000	0.000000 
-0.637500	-0.120000	0.000000 
-0.637500	-0.080000	0.000000 
-0.637500	-0.040000	0.000000 
-0.637500	0.000000	0.000000 
-0.637500	0.040000	0.000000 
-0.637500	0.080000	0.000000 
-0.637500	0.120000	0.000000 
-0.637500	0.160000	0.000000 
-0.637500	0.200000	0.000000 
-0.637500	0.240000	0.000000 
-0.637500	0.280000	0.000000 
-0.637500	0.320000	0.000000 
-0.637500	0.360000	0.000000 
-0.637500	0.400000	0.000000 
-0.637500	0.440000	0.000000 
-0.637500	0.480000	0.000000 
-0.637500	0.520000	0.000000 
-0.637500	0.560000	0.000000 
-0.637500	0.600000	0.000000 
-0.637500	0.640000	0.000000 
-0.637500	0.680000	0.000000 
-0.637500	0.720000	0.000000 
-0.637500	0.760000	0.000000 
-0.637500	0.800000	0.000000 
-0.637500	0.840000	0.000000 
-0.637500	0.880000	0.000000 
-0.637500	0.920000	0.000000 
-0.637500	0.960000	0.000000 
-0.637500	1.000000	0.000000 
-0.600000	-1.000000	0.000000 
-0.600000	-0.960000	0.000000 
-0.600000	-0.920000	0.000000 
-0.600000	-0.880000	0.000000 
-0.600000	-0.840000	0.000000 
-0.600000	-0.800000	0.000000 
-0.600000	-0.760000	0.000000 
-0.600000	-0.720000	0.000000 
-0.600000	-0.680000	0.000000 
-0.600000	-0.640000	0.000000 
-0.600000	-0.600000	0.000000 
-0.600000	-0.560000	0.000000 
-0.600000	-0.520000	0.000000 
-0.600000	-0.480000	0.000000 
-0.600000	-0.440000	0.000000 
-0.600000	-0.400000	0.000000 
-0.600000	-0.360000	0.000000 
-0.600000	-0.320000	0.000000 
-0.600000	-0.280000	0.000000 
-0.600000	-0.240000	0.000000 
-0.600000	-0.200000	0.000000 
-0.600000	-0.160000	0.000000 
-0.600000	-0.120000	0.000000 
-0.600000	-0.080000	0.000000 
-0.600000	-0.040000	0.000000 
-0.600000	0.000000	0.000000 
-0.600000	0.040000	0.000000 
-0.600000	0.080000	0.000000 
-0.600000	0.120000	0.000000 
-0.600000	0.160000	0.000000 
-0.600000	0.200000	0.000000 
-0.600000	0.240000	0.000000 
-0.600000	0.280000	0.000000 
-0.600000	0.320000	0.000000 
-0.600000	0.360000	0.000000 
-0.600000	0.400000	0.000000 
-0.600000	0.440000	0.000000 
-0.600000	0.480000	0.000000 
-0.600000	0.520000	0.000000 
-0.600000	0.560000	0.000000 
-0.600000	0.600000	0.000000 
-0.600000	0.640000	0.000000 
-0.600000	0.680000	0.000000 
-0.600000	0.720000	0.000000 
-0.600000	0.760000	0.000000 
-0.600000	0.800000	0.000000 
-0.600000	0.840000	0.000000 
-0.600000	0.880000	0.000000 
-0.600000	0.920000	0.000000 
-0.600000	0.960000	0.000000 
-0.600000	1.000000	0.000000 
-0.562500	-1.000000	0.000000 
-0.562500	-0.960000	0.000000 
-0.562500	-0.920000	0.000000 
-0.562500	-0.880000	0.000000 
-0.562500	-0.840000	0.000000 
-0.562500	-0.800000	0.000000 
-0.562500	-0.760000	0.000000 
-0.562500	-0.720000	0.000000 
-0.562500	-0.680000	0.000000 
-0.562500	-0.640000	0.000000 
-0.562500	-0.600000	0.000000 
-0.562500	-0.560000	0.000000 
-0.562500	-0.520000	0.000000 
-0.562500	-0.480000	0.000000 
-0.562500	-0.440000	0.000000 
-0.562500	-0.400000	0.000000 
-0.562500	-0.360000	0.000000 
-0.562500	-0.320000	0.000000 
-0.562500	-0.280000	0.000000 
-0.562500	-0.240000	0.000000 
-0.562500	-0.200000	0.000000 
-0.562500	-0.160000	0.000000 
-0.562500	-0.120000	0.000000 
-0.562500	-0.080000	0.000000 
-0.562500	-0.040000	0.000000 
-0.562500	0.000000	0.000000 
-0.562500	0.040000	0.000000 
-0.562500	0.080000	0.000000 
-0.562500	0.120000	0.000000 
-0.562500	0.160000	0.000000 
-0.562500	0.200000	0.000000 
-0.562500	0.240000	0.000000 
-0.562500	0.280000	0.000000 
-0.562500	0.320000	0.000000 
-0.562500	0.360000	0.000000 
-0.562500	0.400000	0.000000 
-0.562500	0.440000	0.000000 
-0.562500	0.480000	0.000000 
-0.562500	0.520000	0.000000 
-0.562500	0.560000	0.000000 
-0.562500	0.600000	0.000000 
-0.562500	0.640000	0.000000 
-0.562500	0.680000	0.000000 
-0.562500	0.720000	0.000000 
-0.562500	0.760000	0.000000 
-0.562500	0.800000	0.000000 
-0.562500	0.840000	0.000000 
-0.562500	0.880000	0.000000 
-0.562500	0.920000	0.000000 
-0.562500	0.960000	0.000000 
-0.562500	1.000000	0.000000 
-0.525000	-1.000000	0.000000 
-0.525000	-0.960000	0.000000 
-0.525000	-0.920000	0.000000 
-0.525000	-0.880000	0.000000 
-0.525000	-0.840000	0.000000 
-0.525000	-0.800000	0.000000 
-0.525000	-0.760000	0.000000 
-0.525000	-0.720000	0.000000 
-0.525000	-0.680000	0.000000 
-0.525000	-0.640000	0.000000 
-0.525000	-0.600000	0.000000 
-0.525000	-0.560000	0.000000 
-0.525000	-0.520000	0.000000 
-0.525000	-0.480000	0.000000 
-0.525000	-0.440000	0.000000 
-0.525000	-0.400000	0.000000 
-0.525000	-0.360000	0.000000 
-0.525000	-0.320000	0.000000 
-0.525000	-0.280000	0.000000 
-0.525000	-0.240000	0.000000 
-0.525000	-0.200000	0.000000 
-0.525000	-0.160000	0.000000 
-0.525000	-0.120000	0.000000 
-0.525000	-0.080000	0.000000 
-0.525000	-0.040000	0.000000 
-0.525000	0.000000	0.000000 
-0.525000	0.040000	0.000000 
-0.525000	0.080000	0.000000 
-0.525000	0.120000	0.000000 
-0.525000	0.160000	0.000000 
-0.525000	0.200000	0.000000 
-0.525000	0.240000	0.000000 
-0.525000	0.280000	0.000000 
-0.525000	0.320000	0.000000 
-0.525000	0.360000	0.000000 
-0.525000	0.400000	0.000000 
-0.525000	0.440000	0.000000 
-0.525000	0.480000	0.000000 
-0.525000	0.520000	0.000000 
-0.525000	0.560000	0.000000 
-0.525000	0.600000	0.000000 
-0.525000	0.640000	0.000000 
-0.525000	0.680000	0.000000 
-0.525000	0.720000	0.000000 
-0.525000	0.760000	0.000000 
-0.525000	0.800000	0.000000 
-0.525000	0.840000	0.000000 
-0.525000	0.880000	0.000000 
-0.525000	0.920000	0.000000 
-0.525000	0.960000	0.000000 
-0.525000	1.000000	0.000000 
-0.487500	-1.000000	0.000000 
-0.487500	-0.960000	0.000000 
-0.487500	-0.920000	0.000000 
-0.487500	-0.880000	0.000000 
-0.487500	-0.840000	0.000000 
-0.487500	-0.800000	0.000000 
-0.487500	-0.760000	0.000000 
-0.487500	-0.720000	0.000000 
-0.487500	-0.680000	0.000000 
-0.487500	-0.640000	0.000000 
-0.487500	-0.600000	0.000000 
-0.487500	-0.560000	0.000000 
-0.487500	-0.520000	0.000000 
-0.487500	-0.480000	0.000000 
-0.487500	-0.440000	0.000000 
-0.487500	-0.400000	0.000000 
-0.487500	-0.360000	0.000000 
-0.487500	-0.320000	0.000000 
-0.487500	-0.280000	0.000000 
-0.487500	-0.240000	0.000000 
-0.487500	-0.200000	0.000000 
-0.487500	-0.160000	0.000000 
-0.487500	-0.120000	0.000000 
-0.487500	-0.080000	0.000000 
-0.487500	-0.040000	0.000000 
-0.487500	0.000000	0.000000 
-0.487500	0.040000	0.000000 
-0.487500	0.080000	0.000000 
-0.487500	0.120000	0.000000 
-0.487500	0.160000	0.000000 
-0.487500	0.200000	0.000000 
-0.487500	0.240000	0.000000 
-0.487500	0.280000	0.000000 
-0.487500	0.320000	0.000000 
-0.487500	0.360000	0.000000 
-0.487500	0.400000	0.000000 
-0.487500	0.440000	0.000000 
-0.487500	0.480000	0.000000 
-0.487500	0.520000	0.000000 
-0.487500	0.560000	0.000000 
-0.487500	0.600000	0.000000 
-0.487500	0.640000	0.000000 
-0.487500	0.680000	0.000000 
-0.487500	0.720000	0.000000 
-0.487500	0.760000	0.000000 
-0.487500	0.800000	0.000000 
-0.487500	0.840000	0.000000 
-0.487500	0.880000	0.000000 
-0.487500	0.920000	0.000000 
-0.487500	0.960000	0.000000 
-0.487500	1.000000	0.000000 
-0.450000	-1.000000	0.000000 
-0.450000	-0.960000	0.000000 
-0.450000	-0.920000	0.000000 
-0.450000	-0.880000	0.000000 
-0.450000	-0.840000	0.000000 
-0.450000	-0.800000	0.000000 
-0.450000	-0.760000	0.000000 
-0.450000	-0.720000	0.000000 
-0.450000	-0.680000	0.000000 
-0.450000	-0.640000	0.000000 
-0.450000	-0.600000	0.000000 
-0.450000	-0.560000	0.000000 
-0.450000	-0.520000	0.000000 
-0.450000	-0.480000	0.000000 
-0.450000	-0.440000	0.000000 
-0.450000	-0.400000	0.000000 
-0.450000	-0.360000	0.000000 
-0.450000	-0.320000	0.000000 
-0.450000	-0.280000	0.000000 
-0.450000	-0.240000	0.000000 
-0.450000	-0.200000	0.000000 
-0.450000	-0.160000	0.000000 
-0.450000	-0.120000	0.000000 
-0.450000	-0.080000	0.000000 
-0.450000	-0.040000	0.000000 
-0.450000	0.000000	0.000000 
-0.450000	0.040000	0.000000 
-0.450000	0.080000	0.000000 
-0.450000	0.120000	0.000000 
-0.450000	0.160000	0.000000 
-0.450000	0.200000	0.000000 
-0.450000	0.240000	0.000000 
-0.450000	0.280000	0.000000 
-0.450000	0.320000	0.000000 
-0.450000	0.360000	0.000000 
-0.450000	0.400000	0.000000 
-0.450000	0.440000	0.000000 
-0.450000	0.480000	0.000000 
-0.450000	0.520000	0.000000 
-0.450000	0.560000	0.000000 
-0.450000	0.600000	0.000000 
-0.450000	0.640000	0.000000 
-0.450000	0.680000	0.000000 
-0.450000	0.720000	0.000000 
-0.450000	0.760000	0.000000 
-0.450000	0.800000	0.000000 
-0.450000	0.840000	0.000000 
-0.450000	0.880000	0.000000 
-0.450000	0.920000	0.000000 
-0.450000	0.960000	0.000000 
-0.450000	1.000000	0.000000 
-0.412500	-1.000000	0.000000 
-0.412500	-0.960000	0.000000 
-0.412500	-0.920000	0.000000 
-0.412500	-0.880000	0.000000 
-0.412500	-0.840000	0.000000 
-0.412500	-0.800000	0.000000 
-0.412500	-0.760000	0.000000 
-0.412500	-0.720000	0.000000 
-0.412500	-0.680000	0.000000 
-0.412500	-0.640000	0.000000 
-0.412500	-0.600000	0.000000 
-0.412500	-0.560000	0.000000 
-0.412500	-0.520000	0.000000 
-0.412500	-0.480000	0.000000 
-0.412500	-0.440000	0.000000 
-0.412500	-0.400000	0.000000 
-0.412500	-0.360000	0.000000 
-0.412500	-0.320000	0.000000 
-0.412500	-0.280000	0.000000 
-0.412500	-0.240000	0.000000 
-0.412500	-0.200000	0.000000 
-0.412500	-0.160000	0.000000 
-0.412500	-0.120000	0.000000 
-0.412500	-0.080000	0.000000 
-0.412500	-0.040000	0.000000 
-0.412500	0.000000	0.000000 
-0.412500	0.040000	0.000000 
-0.412500	0.080000	0.000000 
-0.412500	0.120000	0.000000 
-0.412500	0.160000	0.000000 
-0.412500	0.200000	0.000000 
-0.412500	0.240000	0.000000 
-0.412500	0.280000	0.000000 
-0.412500	0.320000	0.000000 
-0.412500	0.360000	0.000000 
-0.412500	0.400000	0.000000 
-0.412500	0.440000	0.000000 
-0.412500	0.480000	0.000000 
-0.412500	0.520000	0.000000 
-0.412500	0.560000	0.000000 
-0.412500	0.600000	0.000000 
-0.412500	0.640000	0.000000 
-0.412500	0.680000	0.000000 
-0.412500	0.720000	0.000000 
-0.412500	0.760000	0.000000 
-0.412500	0.800000	0.000000 
-0.412500	0.840000	0.000000 
-0.412500	0.880000	0.000000 
-0.412500	0.920000	0.000000 
-0.412500	0.960000	0.000000 
-0.412500	1.000000	0.000000 
-0.375000	-1.000000	0.000000 
-0.375000	-0.960000	0.000000 
-0.375000	-0.920000	0.000000 
-0.375000	-0.880000	0.000000 
-0.375000	-0.840000	0.000000 
-0.375000	-0.800000	0.000000 
-0.375000	-0.760000	0.000000 
-0.375000	-0.720000	0.000000 
-0.375000	-0.680000	0.000000 
-0.375000	-0.640000	0.000000 
-0.375000	-0.600000	0.000000 
-0.375000	-0.560000	0.000000 
-0.375000	-0.520000	0.000000 
-0.375000	-0.480000	0.000000 
-0.375000	-0.440000	0.000000 
-0.375000	-0.400000	0.000000 
-0.375000	-0.360000	0.000000 
-0.375000	-0.320000	0.000000 
-0.375000	-0.280000	0.000000 
-0.375000	-0.240000	0.000000 
-0.375000	-0.200000	0.000000 
-0.375000	-0.160000	0.000000 
-0.375000	-0.120000	0.000000 
-0.375000	-0.080000	0.000000 
-0.375000	-0.040000	0.000000 
-0.375000	0.000000	0.000000 
-0.375000	0.040000	0.000000 
-0.375000	0.080000	0.000000 
-0.375000	0.120000	0.000000 
-0.375000	0.160000	0.000000 
-0.375000	0.200000	0.000000 
-0.375000	0.240000	0.000000 
-0.375000	0.280000	0.000000 
-0.375000	0.320000	0.000000 
-0.375000	0.360000	0.000000 
-0.375000	0.400000	0.000000 
-0.375000	0.440000	0.000000 
-0.375000	0.480000	0.000000 
-0.375000	0.520000	0.000000 
-0.375000	0.560000	0.000000 
-0.375000	0.600000	0.000000 
-0.375000	0.640000	0.000000 
-0.375000	0.680000	0.000000 
-0.375000	0.720000	0.000000 
-0.375000	0.760000	0.000000 
-0.375000	0.800000	0.000000 
-0.375000	0.840000	0.000000 
-0.375000	0.880000	0.000000 
-0.375000	0.920000	0.000000 
-0.375000	0.960000	0.000000 
-0.375000	1.000000	0.000000 
-0.337500	-1.000000	0.000000 
-0.337500	-0.960000	0.000000 
-0.337500	-0.920000	0.000000 
-0.337500	-0.880000	0.000000 
-0.337500	-0.840000	0.000000 
-0.337500	-0.800000	0.000000 
-0.337500	-0.760000	0.000000 
-0.337500	-0.720000	0.000000 
-0.337500	-0.680000	0.000000 
-0.337500	-0.640000	0.000000 
-0.337500	-0.600000	0.000000 
-0.337500	-0.560000	0.000000 
-0.337500	-0.520000	0.000000 
-0.337500	-0.480000	0.000000 
-0.337500	-0.440000	0.000000 
-0.337500	-0.400000	0.000000 
-0.337500	-0.360000	0.000000 
-0.337500	-0.320000	0.000000 
-0.337500	-0.280000	0.000000 
-0.337500	-0.240000	0.000000 
-0.337500	-0.200000	0.000000 
-0.337500	-0.160000	0.000000 
-0.337500	-0.120000	0.000000 
-0.337500	-0.080000	0.000000 
-0.337500	-0.040000	0.000000 
-0.337500	0.000000	0.000000 
-0.337500	0.040000	0.000000 
-0.337500	0.080000	0.000000 
-0.337500	0.120000	0.000000 
-0.337500	0.160000	0.000000 
-0.337500	0.200000	0.000000 
-0.337500	0.240000	0.000000 
-0.337500	0.280000	0.000000 
-0.337500	0.320000	0.000000 
-0.337500	0.360000	0.000000 
-0.337500	0.400000	0.000000 
-0.337500	0.440000	0.000000 
-0.337500	0.480000	0.000000 
-0.337500	0.520000	0.000000 
-0.337500	0.560000	0.000000 
-0.337500	0.600000	0.000000 
-0.337500	0.640000	0.000000 
-0.337500	0.680000	0.000000 
-0.337500	0.720000	0.000000 
-0.337500	0.760000	0.000000 
-0.337500	0.800000	0.000000 
-0.337500	0.840000	0.000000 
-0.337500	0.880000	0.000000 
-0.337500	0.920000	0.000000 
-0.337500	0.960000	0.000000 
-0.337500	1.000000	0.000000 
-0.300000	-1.000000	0.000000 
-0.300000	-0.960000	0.000000 
-0.300000	-0.920000	0.000000 
-0.300000	-0.880000	0.000000 
-0.300000	-0.840000	0.000000 
-0.300000	-0.800000	0.000000 
-0.300000	-0.760000	0.000000 
-0.300000	-0.720000	0.000000 
-0.300000	-0.680000	0.000000 
-0.300000	-0.640000	0.000000 
-0.300000	-0.600000	0.000000 
-0.300000	-0.560000	0.000000 
-0.300000	-0.520000	0.000000 
-0.300000	-0.480000	0.000000 
-0.300000	-0.440000	0.000000 
-0.300000	-0.400000	0.000000 
-0.300000	-0.360000	0.000000 
-0.300000	-0.320000	0.000000 
-0.300000	-0.280000	0.000000 
-0.300000	-0.240000	0.000000 
-0.300000	-0.200000	0.000000 
-0.300000	-0.160000	0.000000 
-0.300000	-0.120000	0.000000 
-0.300000	-0.080000	0.000000 
-0.300000	-0.040000	0.000000 
-0.300000	0.000000	0.000000 
-0.300000	0.040000	0.000000 
-0.300000	0.080000	0.000000 
-0.300000	0.120000	0.000000 
-0.300000	0.160000	0.000000 
-0.300000	0.200000	0.000000 
-0.300000	0.240000	0.000000 
-0.300000	0.280000	0.000000 
-0.300000	0.320000	0.000000 
-0.300000	0.360000	0.000000 
-0.300000	0.400000	0.000000 
-0.300000	0.440000	0.000000 
-0.300000	0.480000	0.000000 
-0.300000	0.520000	0.000000 
-0.300000	0.560000	0.000000 
-0.300000	0.600000	0.000000 
-0.300000	0.640000	0.000000 
-0.300000	0.680000	0.000000 
-0.300000	0.720000	0.000000 
-0.300000	0.760000	0.000000 
-0.300000	0.800000	0.000000 
-0.300000	0.840000	0.000000 
-0.300000	0.880000	0.000000 
-0.300000	0.920000	0.000000 
-0.300000	0.960000	0.000000 
-0.300000	1.000000	0.000000 
-0.262500	-1.000000	0.000000 
-0.262500	-0.960000	0.000000 
-0.262500	-0.920000	0.000000 
-0.262500	-0.880000	0.000000 
-0.262500	-0.840000	0.000000 
-0.262500	-0.800000	0.000000 
-0.262500	-0.760000	0.000000 
-0.262500	-0.720000	0.000000 
-0.262500	-0.680000	0.000000 
-0.262500	-0.640000	0.000000 
-0.262500	-0.600000	0.000000 
-0.262500	-0.560000	0.000000 
-0.262500	-0.520000	0.000000 
-0.262500	-0.480000	0.000000 
-0.262500	-0.440000	0.000000 
-0.262500	-0.400000	0.000000 
-0.262500	-0.360000	0.000000 
-0.262500	-0.320000	0.000000 
-0.262500	-0.280000	0.000000 
-0.262500	-0.240000	0.000000 
-0.262500	-0.200000	0.000000 
-0.262500	-0.160000	0.000000 
-0.262500	-0.120000	0.000000 
-0.262500	-0.080000	0.000000 
-0.262500	-0.040000	0.000000 
-0.262500	0.000000	0.000000 
-0.262500	0.040000	0.000000 
-0.262500	0.080000	0.000000 
-0.262500	0.120000	0.000000 
-0.262500	0.160000	0.000000 
-0.262500	0.200000	0.000000 
-0.262500	0.240000	0.000000 
-0.262500	0.280000	0.000000 
-0.262500	0.320000	0.000000 
-0.262500	0.360000	0.000000 
-0.262500	0.400000	0.000000 
-0.262500	0.440000	0.000000 
-0.262500	0.480000	0.000000 
-0.262500	0.520000	0.000000 
-0.262500	0.560000	0.000000 
-0.262500	0.600000	0.000000 
-0.262500	0.640000	0.000000 
-0.262500	0.680000	0.000000 
-0.262500	0.720000	0.000000 
-0.262500	0.760000	0.000000 
-0.262500	0.800000	0.000000 
-0.262500	0.840000	0.000000 
-0.262500	0.880000	0.000000 
-0.262500	0.920000	0.000000 
-0.262500	0.960000	0.000000 
-0.262500	1.000000	0.000000 
-0.225000	-1.000000	0.000000 
-0.225000	-0.960000	0.000000 
-0.225000	-0.920000	0.000000 
-0.225000	-0.880000	0.000000 
-0.225000	-0.840000	0.000000 
-0.225000	-0.800000	0.000000 
-0.225000	-0.760000	0.000000 
-0.225000	-0.720000	0.000000 
-0.225000	-0.680000	0.000000 
-0.225000	-0.640000	0.000000 
-0.225000	-0.600000	0.000000 
-0.225000	-0.560000	0.000000 
-0.225000	-0.520000	0.000000 
-0.225000	-0.480000	0.000000 
-0.225000	-0.440000	0.000000 
-0.225000	-0.400000	0.000000 
-0.225000	-0.360000	0.000000 
-0.225000	-0.320000	0.000000 
-0.225000	-0.280000	0.000000 
-0.225000	-0.240000	0.000000 
-0.225000	-0.200000	0.000000 
-0.225000	-0.160000	0.000000 
-0.225000	-0.120000	0.000000 
-0.225000	-0.080000	0.000000 
-0.225000	-0.040000	0.000000 
-0.225000	0.000000	0.000000 
-0.225000	0.040000	0.000000 
-0.225000	0.080000	0.000000 
-0.225000	0.120000	0.000000 
-0.225000	0.160000	0.000000 
-0.225000	0.200000	0.000000 
-0.225000	0.240000	0.000000 
-0.225000	0.280000	0.000000 
-0.225000	0.320000	0.000000 
-0.225000	0.360000	0.000000 
-0.225000	0.400000	0.000000 
-0.225000	0.440000	0.000000 
-0.225000	0.480000	0.000000 
-0.225000	0.520000	0.000000 
-0.225000	0.560000	0.000000 
-0.225000	0.600000	0.000000 
-0.225000	0.640000	0.000000 
-0.225000	0.680000	0.000000 
-0.225000	0.720000	0.000000 
-0.225000	0.760000	0.000000 
-0.225000	0.800000	0.000000 
-0.225000	0.840000	0.000000 
-0.225000	0.880000	0.000000 
-0.225000	0.920000	0.000000 
-0.225000	0.960000	0.000000 
-0.225000	1.000000	0.000000 
-0.187500	-1.000000	0.000000 
-0.187500	-0.960000	0.000000 
-0.187500	-0.920000	0.000000 
-0.187500	-0.880000	0.000000 
-0.187500	-0.840000	0.000000 
-0.187500	-0.800000	0.000000 
-0.187500	-0.760000	0.000000 
-0.187500	-0.720000	0.000000 
-0.187500	-0.680000	0.000000 
-0.187500	-0.640000	0.000000 
-0.187500	-0.600000	0.000000 
-0.187500	-0.560000	0.000000 
-0.187500	-0.520000	0.000000 
-0.187500	-0.480000	0.000000 
-0.187500	-0.440000	0.000000 
-0.187500	-0.400000	0.000000 
-0.187500	-0.360000	0.000000 
-0.187500	-0.320000	0.000000 
-0.187500	-0.280000	0.000000 
-0.187500	-0.240000	0.000000 
-0.187500	-0.200000	0.000000 
-0.187500	-0.160000	0.000000 
-0.187500	-0.120000	0.000000 
-0.187500	-0.080000	0.000000 
-0.187500	-0.040000	0.000000 
-0.187500	0.000000	0.000000 
-0.187500	0.040000	0.000000 
-0.187500	0.080000	0.000000 
-0.187500	0.120000	0.000000 
-0.187500	0.160000	0.000000 
-0.187500	0.200000	0.000000 
-0.187500	0.240000	0.000000 
-0.187500	0.280000	0.000000 
-0.187500	0.320000	0.000000 
-0.187500	0.360000	0.000000 
-0.187500	0.400000	0.000000 
-0.187500	0.440000	0.000000 
-0.187500	0.480000	0.000000 
-0.187500	0.520000	0.000000 
-0.187500	0.560000	0.000000 
-0.187500	0.600000	0.000000 
-0.187500	0.640000	0.000000 
-0.187500	0.680000	0.000000 
-0.187500	0.720000	0.000000 
-0.187500	0.760000	0.000000 
-0.187500	0.800000	0.000000 
-0.187500	0.840000	0.000000 
-0.187500	0.880000	0.000000 
-0.187500	0.920000	0.000000 
-0.187500	0.960000	0.000000 
-0.187500	1.000000	0.000000 
-0.150000	-1.000000	0.000000 
-0.150000	-0.960000	0.000000 
-0.150000	-0.920000	0.000000 
-0.150000	-0.880000	0.000000 
-0.150000	-0.840000	0.000000 
-0.150000	-0.800000	0.000000 
-0.150000	-0.760000	0.000000 
-0.150000	-0.720000	0.000000 
-0.150000	-0.680000	0.000000 
-0.150000	-0.640000	0.000000 
-0.150000	-0.600000	0.000000 
-0.150000	-0.560000	0.000000 
-0.150000	-0.520000	0.000000 
-0.150000	-0.480000	0.000000 
-0.150000	-0.440000	0.000000 
-0.150000	-0.400000	0.000000 
-0.150000	-0.360000	0.000000 
-0.150000	-0.320000	0.000000 
-0.150000	-0.280000	0.000000 
-0.150000	-0.240000	0.000000 
-0.150000	-0.200000	0.000000 
-0.150000	-0.160000	0.000000 
-0.150000	-0.120000	0.000000 
-0.150000	-0.080000	0.000000 
-0.150000	-0.040000	0.000000 
-0.150000	0.000000	0.000000 
-0.150000	0.040000	0.000000 
-0.150000	0.080000	0.000000 
-0.150000	0.120000	0.000000 
-0.150000	0.160000	0.000000 
-0.150000	0.200000	0.000000 
-0.150000	0.240000	0.000000 
-0.150000	0.280000	0.000000 
-0.150000	0.320000	0.000000 
-0.150000	0.360000	0.000000 
-0.150000	0.400000	0.000000 
-0.150000	0.440000	0.000000 
-0.150000	0.480000	0.000000 
-0.150000	0.520000	0.000000 
-0.150000	0.560000	0.000000 
-0.150000	0.600000	0.000000 
-0.150000	0.640000	0.000000 
-0.150000	0.680000	0.000000 
-0.150000	0.720000	0.000000 
-0.150000	0.760000	0.000000 
-0.150000	0.800000	0.000000 
-0.150000	0.840000	0.000000 
-0.150000	0.880000	0.000000 
-0.150000	0.920000	0.000000 
-0.150000	0.960000	0.000000 
-0.150000	1.000000	0.000000 
-0.112500	-1.000000	0.000000 
-0.112500	-0.960000	0.000000 
-0.112500	-0.920000	0.000000 
-0.112500	-0.880000	0.000000 
-0.112500	-0.840000	0.000000 
-0.112500	-0.800000	0.000000 
-0.112500	-0.760000	0.000000 
-0.112500	-0.720000	0.000000 
-0.112500	-0.680000	0.000000 
-0.112500	-0.640000	0.000000 
-0.112500	-0.600000	0.000000 
-0.112500	-0.560000	0.000000 
-0.112500	-0.520000	0.000000 
-0.112500	-0.480000	0.000000 
-0.112500	-0.440000	0.000000 
-0.112500	-0.400000	0.000000 
-0.112500	-0.360000	0.000000 
-0.112500	-0.320000	0.000000 
-0.112500	-0.280000	0.000000 
-0.112500	-0.240000	0.000000 
-0.112500	-0.200000	0.000000 
-0.112500	-0.160000	0.000000 
-0.112500	-0.120000	0.000000 
-0.112500	-0.080000	0.000000 
-0.112500	-0.040000	0.000000 
-0.112500	0.000000	0.000000 
-0.112500	0.040000	0.000000 
-0.112500	0.080000	0.000000 
-0.112500	0.120000	0.000000 
-0.112500	0.160000	0.000000 
-0.112500	0.200000	0.000000 
-0.112500	0.240000	0.000000 
-0.112500	0.280000	0.000000 
-0.112500	0.320000	0.000000 
-0.112500	0.360000	0.000000 
-0.112500	0.400000	0.000000 
-0.112500	0.440000	0.000000 
-0.112500	0.480000	0.000000 
-0.112500	0.520000	0.000000 
-0.112500	0.560000	0.000000 
-0.112500	0.600000	0.000000 
-0.112500	0.640000	0.000000 
-0.112500	0.680000	0.000000 
-0.112500	0.720000	0.000000 
-0.112500	0.760000	0.000000 
-0.112500	0.800000	0.000000 
-0.112500	0.840000	0.000000 
-0.112500	0.880000	0.000000 
-0.112500	0.920000	0.000000 
-0.112500	0.960000	0.000000 
-0.112500	1.000000	0.000000 
-0.075000	-1.000000	0.000000 
-0.075000	-0.960000	0.000000 
-0.075000	-0.920000	0.000000 
-0.075000	-0.880000	0.000000 
-0.075000	-0.840000	0.000000 
-0.075000	-0.800000	0.000000 
-0.075000	-0.760000	0.000000 
-0.075000	-0.720000	0.000000 
-0.075000	-0.680000	0.000000 
-0.075000	-0.640000	0.000000 
-0.075000	-0.600000	0.000000 
-0.075000	-0.560000	0.000000 
-0.075000	-0.520000	0.000000 
-0.075000	-0.480000	0.000000 
-0.075000	-0.440000	0.000000 
-0.075000	-0.400000	0.000000 
-0.075000	-0.360000	0.000000 
-0.075000	-0.320000	0.000000 
-0.075000	-0.280000	0.000000 
-0.075000	-0.240000	0.000000 
-0.075000	-0.200000	0.000000 
-0.075000	-0.160000	0.000000 
-0.075000	-0.120000	0.000000 
-0.075000	-0.080000	0.000000 
-0.075000	-0.040000	0.000000 
-0.075000	0.000000	0.000000 
-0.075000	0.040000	0.000000 
-0.075000	0.080000	0.000000 
-0.075000	0.120000	0.000000 
-0.075000	0.160000	0.000000 
-0.075000	0.200000	0.000000 
-0.075000	0.240000	0.000000 
-0.075000	0.280000	0.000000 
-0.075000	0.320000	0.000000 
-0.075000	0.360000	0.000000 
-0.075000	0.400000	0.000000 
-0.075000	0.440000	0.000000 
-0.075000	0.480000	0.000000 
-0.075000	0.520000	0.000000 
-0.075000	0.560000	0.000000 
-0.075000	0.600000	0.000000 
-0.075000	0.640000	0.000000 
-0.075000	0.680000	0.000000 
-0.075000	0.720000	0.000000 
-0.075000	0.760000	0.000000 
-0.075000	0.800000	0.000000 
-0.075000	0.840000	0.000000 
-0.075000	0.880000	0.000000 
-0.075000	0.920000	0.000000 
-0.075000	0.960000	0.000000 
-0.075000	1.000000	0.000000 
-0.037500	-1.000000	0.000000 
-0.037500	-0.960000	0.000000 
-0.037500	-0.920000	0.000000 
-0.037500	-0.880000	0.000000 
-0.037500	-0.840000	0.000000 
-0.037500	-0.800000	0.000000 
-0.037500	-0.760000	0.000000 
-0.037500	-0.720000	0.000000 
-0.037500	-0.680000	0.000000 
-0.037500	-0.640000	0.000000 
-0.037500	-0.600000	0.000000 
-0.037500	-0.560000	0.000000 
-0.037500	-0.520000	0.000000 
-0.037500	-0.480000	0.000000 
-0.037500	-0.440000	0.000000 
-0.037500	-0.400000	0.000000 
-0.037500	-0.360000	0.000000 
-0.037500	-0.320000	0.000000 
-0.037500	-0.280000	0.000000 
-0.037500	-0.240000	0.000000 
-0.037500	-0.200000	0.000000 
-0.037500	-0.160000	0.000000 
-0.037500	-0.120000	0.000000 
-0.037500	-0.080000	0.000000 
-0.037500	-0.040000	0.000000 
-0.037500	0.000000	0.000000 
-0.037500	0.040000	0.000000 
-0.037500	0.080000	0.000000 
-0.037500	0.120000	0.000000 
-0.037500	0.160000	0.000000 
-0.037500	0.200000	0.000000 
-0.037500	0.240000	0.000000 
-0.037500	0.280000	0.000000 
-0.037500	0.320000	0.000000 
-0.037500	0.360000	0.000000 
-0.037500	0.400000	0.000000 
-0.037500	0.440000	0.000000 
-0.037500	0.480000	0.000000 
-0.037500	0.520000	0.000000 
-0.037500	0.560000	0.000000 
-0.037500	0.600000	0.000000 
-0.037500	0.640000	0.000000 
-0.037500	0.680000	0.000000 
-0.037500	0.720000	0.000000 
-0.037500	0.760000	0.000000 
-0.037500	0.800000	0.000000 
-0.037500	0.840000	0.000000 
-0.037500	0.880000	0.000000 
-0.037500	0.920000	0.000000 
-0.037500	0.960000	0.000000 
-0.037500	1.000000	0.000000 
0.000000	-1.000000	0.000000 
0.000000	-0.960000	0.000000 
0.000000	-0.920000	0.000000 
0.000000	-0.880000	0.000000 
0.000000	-0.840000	0.000000 
0.000000	-0.800000	0.000000 
0.000000	-0.760000	0.000000 
0.000000	-0.720000	0.000000 
0.000000	-0.680000	0.000000 
0.000000	-0.640000	0.000000 
0.000000	-0.600000	0.000000 
0.000000	-0.560000	0.000000 
0.000000	-0.520000	0.000000 
0.000000	-0.480000	0.000000 
0.000000	-0.440000	0.000000 
0.000000	-0.400000	0.000000 
0.000000	-0.360000	0.000000 
0.000000	-0.320000	0.000000 
0.000000	-0.280000	0.000000 
0.000000	-0.240000	0.000000 
0.000000	-0.200000	0.000000 
0.000000	-0.160000	0.000000 
0.000000	-0.120000	0.000000 
0.000000	-0.080000	0.000000 
0.000000	-0.040000	0.000000 
0.000000	0.000000	0.000000 
0.000000	0.040000	0.000000 
0.000000	0.080000	0.000000 
0.000000	0.120000	0.000000 
0.000000	0.160000	0.000000 
0.000000	0.200000	0.000000 
0.000000	0.240000	0.000000 
0.000000	0.280000	0.000000 
0.000000	0.320000	0.000000 
0.000000	0.360000	0.000000 
0.000000	0.400000	0.000000 
0.000000	0.440000	0.000000 
0.000000	0.480000	0.000000 
0.000000	0.520000	0.000000 
0.000000	0.560000	0.000000 
0.000000	0.600000	0.000000 
0.000000	0.640000	0.000000 
0.000000	0.680000	0.000000 
0.000000	0.720000	0.000000 
0.000000	0.760000	0.000000 
0.000000	0.800000	0.000000 
0.000000	0.840000	0.000000 
0.000000	0.880000	0.000000 
0.000000	0.920000	0.000000 
0.000000	0.960000	0.000000 
0.000000	1.000000	0.000000 
0.037500	-1.000000	0.000000 
0.037500	-0.960000	0.000000 
0.037500	-0.920000	0.000000 
0.037500	-0.880000	0.000000 
0.037500	-0.840000	0.000000 
0.037500	-0.800000	0.000000 
0.037500	-0.760000	0.000000 
0.037500	-0.720000	0.000000 
0.037500	-0.680000	0.000000 
0.037500	-0.640000	0.000000 
0.037500	-0.600000	0.000000 
0.037500	-0.560000	0.000000 
0.037500	-0.520000	0.000000 
0.037500	-0.480000	0.000000 
0.037500	-0.440000	0.000000 
0.037500	-0.400000	0.000000 
0.037500	-0.360000	0.000000 
0.037500	-0.320000	0.000000 
0.037500	-0.280000	0.000000 
0.037500	-0.240000	0.000000 
0.037500	-0.200000	0.000000 
0.037500	-0.160000	0.000000 
0.037500	-0.120000	0.000000 
0.037500	-0.080000	0.000000 
0.037500	-0.040000	0.000000 
0.037500	0.000000	0.000000 
0.037500	0.040000	0.000000 
0.037500	0.080000	0.000000 
0.037500	0.120000	0.000000 
0.037500	0.160000	0.000000 
0.037500	0.200000	0.000000 
0.037500	0.240000	0.000000 
0.037500	0.280000	0.000000 
0.037500	0.320000	0.000000 
0.037500	0.360000	0.000000 
0.037500	0.400000	0.000000 
0.037500	0.440000	0.000000 
0.037500	0.480000	0.000000 
0.037500	0.520000	0.000000 
0.037500	0.560000	0.000000 
0.037500	0.600000	0.000000 
0.037500	0.640000	0.000000 
0.037500	0.680000	0.000000 
0.037500	0.720000	0.000000 
0.037500	0.760000	0.000000 
0.037500	0.800000	0.000000 
0.037500	0.840000	0.000000 
0.037500	0.880000	0.000000 
0.037500	0.920000	0.000000 
0.037500	0.960000	0.000000 
0.037500	1.000000	0.000000 
0.075000	-1.000000	0.000000 
0.075000	-0.960000	0.000000 
0.075000	-0.920000	0.000000 
0.075000	-0.880000	0.000000 
0.075000	-0.840000	0.000000 
0.075000	-0.800000	0.000000 
0.075000	-0.760000	0.000000 
0.075000	-0.720000	0.000000 
0.075000	-0.680000	0.000000 
0.075000	-0.640000	0.000000 
0.075000	-0.600000	0.000000 
0.075000	-0.560000	0.000000 
0.075000	-0.520000	0.000000 
0.075000	-0.480000	0.000000 
0.075000	-0.440000	0.000000 
0.075000	-0.400000	0.000000 
0.075000	-0.360000	0.000000 
0.075000	-0.320000	0.000000 
0.075000	-0.280000	0.000000 
0.075000	-0.240000	0.000000 
0.075000	-0.200000	0.000000 
0.075000	-0.160000	0.000000 
0.075000	-0.120000	0.000000 
0.075000	-0.080000	0.000000 
0.075000	-0.040000	0.000000 
0.075000	0.000000	0.000000 
0.075000	0.040000	0.000000 
0.075000	0.080000	0.000000 
0.075000	0.120000	0.000000 
0.075000	0.160000	0.000000 
0.075000	0.200000	0.000000 
0.075000	0.240000	0.000000 
0.075000	0.280000	0.000000 
0.075000	0.320000	0.000000 
0.075000	0.360000	0.000000 
0.075000	0.400000	0.000000 
0.075000	0.440000	0.000000 
0.075000	0.480000	0.000000 
0.075000	0.520000	0.000000 
0.075000	0.560000	0.000000 
0.075000	0.600000	0.000000 
0.075000	0.640000	0.000000 
0.075000	0.680000	0.000000 
0.075000	0.720000	0.000000 
0.075000	0.760000	0.000000 
0.075000	0.800000	0.000000 
0.075000	0.840000	0.000000 
0.075000	0.880000	0.000000 
0.075000	0.920000	0.000000 
0.075000	0.960000	0.000000 
0.075000	1.000000	0.000000 
0.112500	-1.000000	0.000000 
0.112500	-0.960000	0.000000 
0.112500	-0.920000	0.000000 
0.112500	-0.880000	0.000000 
0.112500	-0.840000	0.000000 
0.112500	-0.800000	0.000000 
0.112500	-0.760000	0.000000 
0.112500	-0.720000	0.000000 
0.112500	-0.680000	0.000000 
0.112500	-0.640000	0.000000 
0.112500	-0.600000	0.000000 
0.112500	-0.560000	0.000000 
0.112500	-0.520000	0.000000 
0.112500	-0.480000	0.000000 
0.112500	-0.440000	0.000000 
0.112500	-0.400000	0.000000 
0.112500	-0.360000	0.000000 
0.112500	-0.320000	0.000000 
0.112500	-0.280000	0.000000 
0.112500	-0.240000	0.000000 
0.112500	-0.200000	0.000000 
0.112500	-0.160000	0.000000 
0.112500	-0.120000	0.000000 
0.112500	-0.080000	0.000000 
0.112500	-0.040000	0.000000 
0.112500	0.000000	0.000000 
0.112500	0.040000	0.000000 
0.112500	0.080000	0.000000 
0.112500	0.120000	0.000000 
0.112500	0.160000	0.000000 
0.112500	0.200000	0.000000 
0.112500	0.240000	0.000000 
0.112500	0.280000	0.000000 
0.112500	0.320000	0.000000 
0.112500	0.360000	0.000000 
0.112500	0.400000	0.000000 
0.112500	0.440000	0.000000 
0.112500	0.480000	0.000000 
0.112500	0.520000	0.000000 
0.112500	0.560000	0.000000 
0.112500	0.600000	0.000000 
0.112500	0.640000	0.000000 
0.112500	0.680000	0.000000 
0.112500	0.720000	0.000000 
0.112500	0.760000	0.000000 
0.112500	0.800000	0.000000 
0.112500	0.840000	0.000000 
0.112500	0.880000	0.000000 
0.112500	0.920000	0.000000 
0.112500	0.960000	0.000000 
0.112500	1.000000	0.000000 
0.150000	-1.000000	0.000000 
0.150000	-0.960000	0.000000 
0.150000	-0.920000	0.000000 
0.150000	-0.880000	0.000000 
0.150000	-0.840000	0.000000 
0.150000	-0.800000	0.000000 
0.150000	-0.760000	0.000000 
0.150000	-0.720000	0.000000 
0.150000	-0.680000	0.000000 
0.150000	-0.640000	0.000000 
0.150000	-0.600000	0.000000 
0.150000	-0.560000	0.000000 
0.150000	-0.520000	0.000000 
0.150000	-0.480000	0.000000 
0.150000	-0.440000	0.000000 
0.150000	-0.400000	0.000000 
0.150000	-0.360000	0.000000 
0.150000	-0.320000	0.000000 
0.150000	-0.280000	0.000000 
0.150000	-0.240000	0.000000 
0.150000	-0.200000	0.000000 
0.150000	-0.160000	0.000000 
0.150000	-0.120000	0.000000 
0.150000	-0.080000	0.000000 
0.150000	-0.040000	0.000000 
0.150000	0.000000	0.000000 
0.150000	0.040000	0.000000 
0.150000	0.080000	0.000000 
0.150000	0.120000	0.000000 
0.150000	0.160000	0.000000 
0.150000	0.200000	0.000000 
0.150000	0.240000	0.000000 
0.150000	0.280000	0.000000 
0.150000	0.320000	0.000000 
0.150000	0.360000	0.000000 
0.150000	0.400000	0.000000 
0.150000	0.440000	0.000000 
0.150000	0.480000	0.000000 
0.150000	0.520000	0.000000 
0.150000	0.560000	0.000000 
0.150000	0.600000	0.000000 
0.150000	0.640000	0.000000 
0.150000	0.680000	0.000000 
0.150000	0.720000	0.000000 
0.150000	0.760000	0.000000 
0.150000	0.800000	0.000000 
0.150000	0.840000	0.000000 
0.150000	0.880000	0.000000 
0.150000	0.920000	0.000000 
0.150000	0.960000	0.000000 
0.150000	1.000000	0.000000 
0.187500	-1.000000	0.000000 
0.187500	-0.960000	0.000000 
0.187500	-0.920000	0.000000 
0.187500	-0.880000	0.000000 
0.187500	-0.840000	0.000000 
0.187500	-0.800000	0.000000 
0.187500	-0.760000	0.000000 
0.187500	-0.720000	0.000000 
0.187500	-0.680000	0.000000 
0.187500	-0.640000	0.000000 
0.187500	-0.600000	0.000000 
0.187500	-0.560000	0.000000 
0.187500	-0.520000	0.000000 
0.187500	-0.480000	0.000000 
0.187500	-0.440000	0.000000 
0.187500	-0.400000	0.000000 
0.187500	-0.360000	0.000000 
0.187500	-0.320000	0.000000 
0.187500	-0.280000	0.000000 
0.187500	-0.240000	0.000000 
0.187500	-0.200000	0.000000 
0.187500	-0.160000	0.000000 
0.187500	-0.120000	0.000000 
0.187500	-0.080000	0.000000 
0.187500	-0.040000	0.000000 
0.187500	0.000000	0.000000 
0.187500	0.040000	0.000000 
0.187500	0.080000	0.000000 
0.187500	0.120000	0.000000 
0.187500	0.160000	0.000000 
0.187500	0.200000	0.000000 
0.187500	0.240000	0.000000 
0.187500	0.280000	0.000000 
0.187500	0.320000	0.000000 
0.187500	0.360000	0.000000 
0.187500	0.400000	0.000000 
0.187500	0.440000	0.000000 
0.187500	0.480000	0.000000 
0.187500	0.520000	0.000000 
0.187500	0.560000	0.000000 
0.187500	0.600000	0.000000 
0.187500	0.640000	0.000000 
0.187500	0.680000	0.000000 
0.187500	0.720000	0.000000 
0.187500	0.760000	0.000000 
0.187500	0.800000	0.000000 
0.187500	0.840000	0.000000 
0.187500	0.880000	0.000000 
0.187500	0.920000	0.000000 
0.187500	0.960000	0.000000 
0.187500	1.000000	0.000000 
0.225000	-1.000000	0.000000 
0.225000	-0.960000	0.000000 
0.225000	-0.920000	0.000000 
0.225000	-0.880000	0.000000 
0.225000	-0.840000	0.000000 
0.225000	-0.800000	0.000000 
0.225000	-0.760000	0.000000 
0.225000	-0.720000	0.000000 
0.225000	-0.680000	0.000000 
0.225000	-0.640000	0.000000 
0.225000	-0.600000	0.000000 
0.225000	-0.560000	0.000000 
0.225000	-0.520000	0.000000 
0.225000	-0.480000	0.000000 
0.225000	-0.440000	0.000000 
0.225000	-0.400000	0.000000 
0.225000	-0.360000	0.000000 
0.225000	-0.320000	0.000000 
0.225000	-0.280000	0.000000 
0.225000	-0.240000	0.000000 
0.225000	-0.200000	0.000000 
0.225000	-0.160000	0.000000 
0.225000	-0.120000	0.000000 
0.225000	-0.080000	0.000000 
0.225000	-0.040000	0.000000 
0.225000	0.000000	0.000000 
0.225000	0.040000	0.000000 
0.225000	0.080000	0.000000 
0.225000	0.120000	0.000000 
0.225000	0.160000	0.000000 
0.225000	0.200000	0.000000 
0.225000	0.240000	0.000000 
0.225000	0.280000	0.000000 
0.225000	0.320000	0.000000 
0.225000	0.360000	0.000000 
0.225000	0.400000	0.000000 
0.225000	0.440000	0.000000 
0.225000	0.480000	0.000000 
0.225000	0.520000	0.000000 
0.225000	0.560000	0.000000 
0.225000	0.600000	0.000000 
0.225000	0.640000	0.000000 
0.225000	0.680000	0.000000 
0.225000	0.720000	0.000000 
0.225000	0.760000	0.000000 
0.225000	0.800000	0.000000 
0.225000	0.840000	0.000000 
0.225000	0.880000	0.000000 
0.225000	0.920000	0.000000 
0.225000	0.960000	0.000000 
0.225000	1.000000	0.000000 
0.262500	-1.000000	0.000000 
0.262500	-0.960000	0.000000 
0.262500	-0.920000	0.000000 
0.262500	-0.880000	0.000000 
0.262500	-0.840000	0.000000 
0.262500	-0.800000	0.000000 
0.262500	-0.760000	0.000000 
0.262500	-0.720000	0.000000 
0.262500	-0.680000	0.000000 
0.262500	-0.640000	0.000000 
0.262500	-0.600000	0.000000 
0.262500	-0.560000	0.000000 
0.262500	-0.520000	0.000000 
0.262500	-0.480000	0.000000 
0.262500	-0.440000	0.000000 
0.262500	-0.400000	0.000000 
0.262500	-0.360000	0.000000 
0.262500	-0.320000	0.000000 
0.262500	-0.280000	0.000000 
0.262500	-0.240000	0.000000 
0.262500	-0.200000	0.000000 
0.262500	-0.160000	0.000000 
0.262500	-0.120000	0.000000 
0.262500	-0.080000	0.000000 
0.262500	-0.040000	0.000000 
0.262500	0.000000	0.000000 
0.262500	0.040000	0.000000 
0.262500	0.080000	0.000000 
0.262500	0.120000	0.000000 
0.262500	0.160000	0.000000 
0.262500	0.200000	0.000000 
0.262500	0.240000	0.000000 
0.262500	0.280000	0.000000 
0.262500	0.320000	0.000000 
0.262500	0.360000	0.000000 
0.262500	0.400000	0.000000 
0.262500	0.440000	0.000000 
0.262500	0.480000	0.000000 
0.262500	0.520000	0.000000 
0.262500	0.560000	0.000000 
0.262500	0.600000	0.000000 
0.262500	0.640000	0.000000 
0.262500	0.680000	0.000000 
0.262500	0.720000	0.000000 
0.262500	0.760000	0.000000 
0.262500	0.800000	0.000000 
0.262500	0.840000	0.000000 
0.262500	0.880000	0.000000 
0.262500	0.920000	0.000000 
0.262500	0.960000	0.000000 
0.262500	1.000000	0.000000 
0.300000	-1.000000	0.000000 
0.300000	-0.960000	0.000000 
0.300000	-0.920000	0.000000 
0.300000	-0.880000	0.000000 
0.300000	-0.840000	0.000000 
0.300000	-0.800000	0.000000 
0.300000	-0.760000	0.000000 
0.300000	-0.720000	0.000000 
0.300000	-0.680000	0.000000 
0.300000	-0.640000	0.000000 
0.300000	-0.600000	0.000000 
0.300000	-0.560000	0.000000 
0.300000	-0.520000	0.000000 
0.300000	-0.480000	0.000000 
0.300000	-0.440000	0.000000 
0.300000	-0.400000	0.000000 
0.300000	-0.360000	0.000000 
0.300000	-0.320000	0.000000 
0.300000	-0.280000	0.000000 
0.300000	-0.240000	0.000000 
0.300000	-0.200000	0.000000 
0.300000	-0.160000	0.000000 
0.300000	-0.120000	0.000000 
0.300000	-0.080000	0.000000 
0.300000	-0.040000	0.000000 
0.300000	0.000000	0.000000 
0.300000	0.040000	0.000000 
0.300000	0.080000	0.000000 
0.300000	0.120000	0.000000 
0.300000	0.160000	0.000000 
0.300000	0.200000	0.000000 
0.300000	0.240000	0.000000 
0.300000	0.280000	0.000000 
0.300000	0.320000	0.000000 
0.300000	0.360000	0.000000 
0.300000	0.400000	0.000000 
0.300000	0.440000	0.000000 
0.300000	0.480000	0.000000 
0.300000	0.520000	0.000000 
0.300000	0.560000	0.000000 
0.300000	0.600000	0.000000 
0.300000	0.640000	0.000000 
0.300000	0.680000	0.000000 
0.300000	0.720000	0.000000 
0.300000	0.760000	0.000000 
0.300000	0.800000	0.000000 
0.300000	0.840000	0.000000 
0.300000	0.880000	0.000000 
0.300000	0.920000	0.000000 
0.300000	0.960000	0.000000 
0.300000	1.000000	0.000000 
0.337500	-1.000000	0.000000 
0.337500	-0.960000	0.000000 
0.337500	-0.920000	0.000000 
0.337500	-0.880000	0.000000 
0.337500	-0.840000	0.000000 
0.337500	-0.800000	0.000000 
0.337500	-0.760000	0.000000 
0.337500	-0.720000	0.000000 
0.337500	-0.680000	0.000000 
0.337500	-0.640000	0.000000 
0.337500	-0.600000	0.000000 
0.337500	-0.560000	0.000000 
0.337500	-0.520000	0.000000 
0.337500	-0.480000	0.000000 
0.337500	-0.440000	0.000000 
0.337500	-0.400000	0.000000 
0.337500	-0.360000	0.000000 
0.337500	-0.320000	0.000000 
0.337500	-0.280000	0.000000 
0.337500	-0.240000	0.000000 
0.337500	-0.200000	0.000000 
0.337500	-0.160000	0.000000 
0.337500	-0.120000	0.000000 
0.337500	-0.080000	0.000000 
0.337500	-0.040000	0.000000 
0.337500	0.000000	0.000000 
0.337500	0.040000	0.000000 
0.337500	0.080000	0.000000 
0.337500	0.120000	0.000000 
0.337500	0.160000	0.000000 
0.337500	0.200000	0.000000 
0.337500	0.240000	0.000000 
0.337500	0.280000	0.000000 
0.337500	0.320000	0.000000 
0.337500	0.360000	0.000000 
0.337500	0.400000	0.000000 
0.337500	0.440000	0.000000 
0.337500	0.480000	0.000000 
0.337500	0.520000	0.000000 
0.337500	0.560000	0.000000 
0.337500	0.600000	0.000000 
0.337500	0.640000	0.000000 
0.337500	0.680000	0.000000 
0.337500	0.720000	0.000000 
0.337500	0.760000	0.000000 
0.337500	0.800000	0.000000 
0.337500	0.840000	0.000000 
0.337500	0.880000	0.000000 
0.337500	0.920000	0.000000 
0.337500	0.960000	0.000000 
0.337500	1.000000	0.000000 
0.375000	-1.000000	0.000000 
0.375000	-0.960000	0.000000 
0.375000	-0.920000	0.000000 
0.375000	-0.880000	0.000000 
0.375000	-0.840000	0.000000 
0.375000	-0.800000	0.000000 
0.375000	-0.760000	0.000000 
0.375000	-0.720000	0.000000 
0.375000	-0.680000	0.000000 
0.375000	-0.640000	0.000000 
0.375000	-0.600000	0.000000 
0.375000	-0.560000	0.000000 
0.375000	-0.520000	0.000000 
0.375000	-0.480000	0.000000 
0.375000	-0.440000	0.000000 
0.375000	-0.400000	0.000000 
0.375000	-0.360000	0.000000 
0.375000	-0.320000	0.000000 
0.375000	-0.280000	0.000000 
0.375000	-0.240000	0.000000 
0.375000	-0.200000	0.000000 
0.375000	-0.160000	0.000000 
0.375000	-0.120000	0.000000 
0.375000	-0.080000	0.000000 
0.375000	-0.040000	0.000000 
0.375000	0.000000	0.000000 
0.375000	0.040000	0.000000 
0.375000	0.080000	0.000000 
0.375000	0.120000	0.000000 
0.375000	0.160000	0.000000 
0.375000	0.200000	0.000000 
0.375000	0.240000	0.000000 
0.375000	0.280000	0.000000 
0.375000	0.320000	0.000000 
0.375000	0.360000	0.000000 
0.375000	0.400000	0.000000 
0.375000	0.440000	0.000000 
0.375000	0.480000	0.000000 
0.375000	0.520000	0.000000 
0.375000	0.560000	0.000000 
0.375000	0.600000	0.000000 
0.375000	0.640000	0.000000 
0.375000	0.680000	0.000000 
0.375000	0.720000	0.000000 
0.375000	0.760000	0.000000 
0.375000	0.800000	0.000000 
0.375000	0.840000	0.000000 
0.375000	0.880000	0.000000 
0.375000	0.920000	0.000000 
0.375000	0.960000	0.000000 
0.375000	1.000000	0.000000 
0.412500	-1.000000	0.000000 
0.412500	-0.960000	0.000000 
0.412500	-0.920000	0.000000 
0.412500	-0.880000	0.000000 
0.412500	-0.840000	0.000000 
0.412500	-0.800000	0.000000 
0.412500	-0.760000	0.000000 
0.412500	-0.720000	0.000000 
0.412500	-0.680000	0.000000 
0.412500	-0.640000	0.000000 
0.412500	-0.600000	0.000000 
0.412500	-0.560000	0.000000 
0.412500	-0.520000	0.000000 
0.412500	-0.480000	0.000000 
0.412500	-0.440000	0.000000 
0.412500	-0.400000	0.000000 
0.412500	-0.360000	0.000000 
0.412500	-0.320000	0.000000 
0.412500	-0.280000	0.000000 
0.412500	-0.240000	0.000000 
0.412500	-0.200000	0.000000 
0.412500	-0.160000	0.000000 
0.412500	-0.120000	0.000000 
0.412500	-0.080000	0.000000 
0.412500	-0.040000	0.000000 
0.412500	0.000000	0.000000 
0.412500	0.040000	0.000000 
0.412500	0.080000	0.000000 
0.412500	0.120000	0.000000 
0.412500	0.160000	0.000000 
0.412500	0.200000	0.000000 
0.412500	0.240000	0.000000 
0.412500	0.280000	0.000000 
0.412500	0.320000	0.000000 
0.412500	0.360000	0.000000 
0.412500	0.400000	0.000000 
0.412500	0.440000	0.000000 
0.412500	0.480000	0.000000 
0.412500	0.520000	0.000000 
0.412500	0.560000	0.000000 
0.412500	0.600000	0.000000 
0.412500	0.640000	0.000000 
0.412500	0.680000	0.000000 
0.412500	0.720000	0.000000 
0.412500	0.760000	0.000000 
0.412500	0.800000	0.000000 
0.412500	0.840000	0.000000 
0.412500	0.880000	0.000000 
0.412500	0.920000	0.000000 
0.412500	0.960000	0.000000 
0.412500	1.000000	0.000000 
0.450000	-1.000000	0.000000 
0.450000	-0.960000	0.000000 
0.450000	-0.920000	0.000000 
0.450000	-0.880000	0.000000 
0.450000	-0.840000	0.000000 
0.450000	-0.800000	0.000000 
0.450000	-0.760000	0.000000 
0.450000	-0.720000	0.000000 
0.450000	-0.680000	0.000000 
0.450000	-0.640000	0.000000 
0.450000	-0.600000	0.000000 
0.450000	-0.560000	0.000000 
0.450000	-0.520000	0.000000 
0.450000	-0.480000	0.000000 
0.450000	-0.440000	0.000000 
0.450000	-0.400000	0.000000 
0.450000	-0.360000	0.000000 
0.450000	-0.320000	0.000000 
0.450000	-0.280000	0.000000 
0.450000	-0.240000	0.000000 
0.450000	-0.200000	0.000000 
0.450000	-0.160000	0.000000 
0.450000	-0.120000	0.000000 
0.450000	-0.080000	0.000000 
0.450000	-0.040000	0.000000 
0.450000	0.000000	0.000000 
0.450000	0.040000	0.000000 
0.450000	0.080000	0.000000 
0.450000	0.120000	0.000000 
0.450000	0.160000	0.000000 
0.450000	0.200000	0.000000 
0.450000	0.240000	0.000000 
0.450000	0.280000	0.000000 
0.450000	0.320000	0.000000 
0.450000	0.360000	0.000000 
0.450000	0.400000	0.000000 
0.450000	0.440000	0.000000 
0.450000	0.480000	0.000000 
0.450000	0.520000	0.000000 
0.450000	0.560000	0.000000 
0.450000	0.600000	0.000000 
0.450000	0.640000	0.000000 
0.450000	0.680000	0.000000 
0.450000	0.720000	0.000000 
0.450000	0.760000	0.000000 
0.450000	0.800000	0.000000 
0.450000	0.840000	0.000000 
0.450000	0.880000	0.000000 
0.450000	0.920000	0.000000 
0.450000	0.960000	0.000000 
0.450000	1.000000	0.000000 
0.487500	-1.000000	0.000000 
0.487500	-0.960000	0.000000 
0.487500	-0.920000	0.000000 
0.487500	-0.880000	0.000000 
0.487500	-0.840000	0.000000 
0.487500	-0.800000	0.000000 
0.487500	-0.760000	0.000000 
0.487500	-0.720000	0.000000 
0.487500	-0.680000	0.000000 
0.487500	-0.640000	0.000000 
0.487500	-0.600000	0.000000 
0.487500	-0.560000	0.000000 
0.487500	-0.520000	0.000000 
0.487500	-0.480000	0.000000 
0.487500	-0.440000	0.000000 
0.487500	-0.400000	0.000000 
0.487500	-0.360000	0.000000 
0.487500	-0.320000	0.000000 
0.487500	-0.280000	0.000000 
0.487500	-0.240000	0.000000 
0.487500	-0.200000	0.000000 
0.487500	-0.160000	0.000000 
0.487500	-0.120000	0.000000 
0.487500	-0.080000	0.000000 
0.487500	-0.040000	0.000000 
0.487500	0.000000	0.000000 
0.487500	0.040000	0.000000 
0.487500	0.080000	0.000000 
0.487500	0.120000	0.000000 
0.487500	0.160000	0.000000 
0.487500	0.200000	0.000000 
0.487500	0.240000	0.000000 
0.487500	0.280000	0.000000 
0.487500	0.320000	0.000000 
0.487500	0.360000	0.000000 
0.487500	0.400000	0.000000 
0.487500	0.440000	0.000000 
0.487500	0.480000	0.000000 
0.487500	0.520000	0.000000 
0.487500	0.560000	0.000000 
0.487500	0.600000	0.000000 
0.487500	0.640000	0.000000 
0.487500	0.680000	0.000000 
0.487500	0.720000	0.000000 
0.487500	0.760000	0.000000 
0.487500	0.800000	0.000000 
0.487500	0.840000	0.000000 
0.487500	0.880000	0.000000 
0.487500	0.920000	0.000000 
0.487500	0.960000	0.000000 
0.487500	1.000000	0.000000 
0.525000	-1.000000	0.000000 
0.525000	-0.960000	0.000000 
0.525000	-0.920000	0.000000 
0.525000	-0.880000	0.000000 
0.525000	-0.840000	0.000000 
0.525000	-0.800000	0.000000 
0.525000	-0.760000	0.000000 
0.525000	-0.720000	0.000000 
0.525000	-0.680000	0.000000 
0.525000	-0.640000	0.000000 
0.525000	-0.600000	0.000000 
0.525000	-0.560000	0.000000 
0.525000	-0.520000	0.000000 
0.525000	-0.480000	0.000000 
0.525000	-0.440000	0.000000 
0.525000	-0.400000	0.000000 
0.525000	-0.360000	0.000000 
0.525000	-0.320000	0.000000 
0.525000	-0.280000	0.000000 
0.525000	-0.240000	0.000000 
0.525000	-0.200000	0.000000 
0.525000	-0.160000	0.000000 
0.525000	-0.120000	0.000000 
0.525000	-0.080000	0.000000 
0.525000	-0.040000	0.000000 
0.525000	0.000000	0.000000 
0.525000	0.040000	0.000000 
0.525000	0.080000	0.000000 
0.525000	0.120000	0.000000 
0.525000	0.160000	0.000000 
0.525000	0.200000	0.000000 
0.525000	0.240000	0.000000 
0.525000	0.280000	0.000000 
0.525000	0.320000	0.000000 
0.525000	0.360000	0.000000 
0.525000	0.400000	0.000000 
0.525000	0.440000	0.000000 
0.525000	0.480000	0.000000 
0.525000	0.520000	0.000000 
0.525000	0.560000	0.000000 
0.525000	0.600000	0.000000 
0.525000	0.640000	0.000000 
0.525000	0.680000	0.000000 
0.525000	0.720000	0.000000 
0.525000	0.760000	0.000000 
0.525000	0.800000	0.000000 
0.525000	0.840000	0.000000 
0.525000	0.880000	0.000000 
0.525000	0.920000	0.000000 
0.525000	0.960000	0.000000 
0.525000	1.000000	0.000000 
0.562500	-1.000000	0.000000 
0.562500	-0.960000	0.000000 
0.562500	-0.920000	0.000000 
0.562500	-0.880000	0.000000 
0.562500	-0.840000	0.000000 
0.562500	-0.800000	0.000000 
0.562500	-0.760000	0.000000 
0.562500	-0.720000	0.000000 
0.562500	-0.680000	0.000000 
0.562500	-0.640000	0.000000 
0.562500	-0.600000	0.000000 
0.562500	-0.560000	0.000000 
0.562500	-0.520000	0.000000 
0.562500	-0.480000	0.000000 
0.562500	-0.440000	0.000000 
0.562500	-0.400000	0.000000 
0.562500	-0.360000	0.000000 
0.562500	-0.320000	0.000000 
0.562500	-0.280000	0.000000 
0.562500	-0.240000	0.000000 
0.562500	-0.200000	0.000000 
0.562500	-0.160000	0.000000 
0.562500	-0.120000	0.000000 
0.562500	-0.080000	0.000000 
0.562500	-0.040000	0.000000 
0.562500	0.000000	0.000000 
0.562500	0.040000	0.000000 
0.562500	0.080000	0.000000 
0.562500	0.120000	0.000000 
0.562500	0.160000	0.000000 
0.562500	0.200000	0.000000 
0.562500	0.240000	0.000000 
0.562500	0.280000	0.000000 
0.562500	0.320000	0.000000 
0.562500	0.360000	0.000000 
0.562500	0.400000	0.000000 
0.562500	0.440000	0.000000 
0.562500	0.480000	0.000000 
0.562500	0.520000	0.000000 
0.562500	0.560000	0.000000 
0.562500	0.600000	0.000000 
0.562500	0.640000	0.000000 
0.562500	0.680000	0.000000 
0.562500	0.720000	0.000000 
0.562500	0.760000	0.000000 
0.562500	0.800000	0.000000 
0.562500	0.840000	0.000000 
0.562500	0.880000	0.000000 
0.562500	0.920000	0.000000 
0.562500	0.960000	0.000000 
0.562500	1.000000	0.000000 
0.600000	-1.000000	0.000000 
0.600000	-0.960000	0.000000 
0.600000	-0.920000	0.000000 
0.600000	-0.880000	0.000000 
0.600000	-0.840000	0.000000 
0.600000	-0.800000	0.000000 
0.600000	-0.760000	0.000000 
0.600000	-0.720000	0.000000 
0.600000	-0.680000	0.000000 
0.600000	-0.640000	0.000000 
0.600000	-0.600000	0.000000 
0.600000	-0.560000	0.000000 
0.600000	-0.520000	0.000000 
0.600000	-0.480000	0.000000 
0.600000	-0.440000	0.000000 
0.600000	-0.400000	0.000000 
0.600000	-0.360000	0.000000 
0.600000	-0.320000	0.000000 
0.600000	-0.280000	0.000000 
0.600000	-0.240000	0.000000 
0.600000	-0.200000	0.000000 
0.600000	-0.160000	0.000000 
0.600000	-0.120000	0.000000 
0.600000	-0.080000	0.000000 
0.600000	-0.040000	0.000000 
0.600000	0.000000	0.000000 
0.600000	0.040000	0.000000 
0.600000	0.080000	0.000000 
0.600000	0.120000	0.000000 
0.600000	0.160000	0.000000 
0.600000	0.200000	0.000000 
0.600000	0.240000	0.000000 
0.600000	0.280000	0.000000 
0.600000	0.320000	0.000000 
0.600000	0.360000	0.000000 
0.600000	0.400000	0.000000 
0.600000	0.440000	0.000000 
0.600000	0.480000	0.000000 
0.600000	0.520000	0.000000 
0.600000	0.560000	0.000000 
0.600000	0.600000	0.000000 
0.600000	0.640000	0.000000 
0.600000	0.680000	0.000000 
0.600000	0.720000	0.000000 
0.600000	0.760000	0.000000 
0.600000	0.800000	0.000000 
0.600000	0.840000	0.000000 
0.600000	0.880000	0.000000 
0.600000	0.920000	0.000000 
0.600000	0.960000	0.000000 
0.600000	1.000000	0.000000 
0.637500	-1.000000	0.000000 
0.637500	-0.960000	0.000000 
0.637500	-0.920000	0.000000 
0.637500	-0.880000	0.000000 
0.637500	-0.840000	0.000000 
0.637500	-0.800000	0.000000 
0.637500	-0.760000	0.000000 
0.637500	-0.720000	0.000000 
0.637500	-0.680000	0.000000 
0.637500	-0.640000	0.000000 
0.637500	-0.600000	0.000000 
0.637500	-0.560000	0.000000 
0.637500	-0.520000	0.000000 
0.637500	-0.480000	0.000000 
0.637500	-0.440000	0.000000 
0.637500	-0.400000	0.000000 
0.637500	-0.360000	0.000000 
0.637500	-0.320000	0.000000 
0.637500	-0.280000	0.000000 
0.637500	-0.240000	0.000000 
0.637500	-0.200000	0.000000 
0.637500	-0.160000	0.000000 
0.637500	-0.120000	0.000000 
0.637500	-0.080000	0.000000 
0.637500	-0.040000	0.000000 
0.637500	0.000000	0.000000 
0.637500	0.040000	0.000000 
0.637500	0.080000	0.000000 
0.637500	0.120000	0.000000 
0.637500	0.160000	0.000000 
0.637500	0.200000	0.000000 
0.637500	0.240000	0.000000 
0.637500	0.280000	0.000000 
0.637500	0.320000	0.000000 
0.637500	0.360000	0.000000 
0.637500	0.400000	0.000000 
0.637500	0.440000	0.000000 
0.637500	0.480000	0.000000 
0.637500	0.520000	0.000000 
0.637500	0.560000	0.000000 
0.637500	0.600000	0.000000 
0.637500	0.640000	0.000000 
0.637500	0.680000	0.000000 
0.637500	0.720000	0.000000 
0.637500	0.760000	0.000000 
0.637500	0.800000	0.000000 
0.637500	0.840000	0.000000 
0.637500	0.880000	0.000000 
0.637500	0.920000	0.000000 
0.637500	0.960000	0.000000 
0.637500	1.000000	0.000000 
0.675000	-1.000000	0.000000 
0.675000	-0.960000	0.000000 
0.675000	-0.920000	0.000000 
0.675000	-0.880000	0.000000 
0.675000	-0.840000	0.000000 
0.675000	-0.800000	0.000000 
0.675000	-0.760000	0.000000 
0.675000	-0.720000	0.000000 
0.675000	-0.680000	0.000000 
0.675000	-0.640000	0.000000 
0.675000	-0.600000	0.000000 
0.675000	-0.560000	0.000000 
0.675000	-0.520000	0.000000 
0.675000	-0.480000	0.000000 
0.675000	-0.440000	0.000000 
0.675000	-0.400000	0.000000 
0.675000	-0.360000	0.000000 
0.675000	-0.320000	0.000000 
0.675000	-0.280000	0.000000 
0.675000	-0.240000	0.000000 
0.675000	-0.200000	0.000000 
0.675000	-0.160000	0.000000 
0.675000	-0.120000	0.000000 
0.675000	-0.080000	0.000000 
0.675000	-0.040000	0.000000 
0.675000	0.000000	0.000000 
0.675000	0.040000	0.000000 
0.675000	0.080000	0.000000 
0.675000	0.120000	0.000000 
0.675000	0.160000	0.000000 
0.675000	0.200000	0.000000 
0.675000	0.240000	0.000000 
0.675000	0.280000	0.000000 
0.675000	0.320000	0.000000 
0.675000	0.360000	0.000000 
0.675000	0.400000	0.000000 
0.675000	0.440000	0.000000 
0.675000	0.480000	0.000000 
0.675000	0.520000	0.000000 
0.675000	0.560000	0.000000 
0.675000	0.600000	0.000000 
0.675000	0.640000	0.000000 
0.675000	0.680000	0.000000 
0.675000	0.720000	0.000000 
0.675000	0.760000	0.000000 
0.675000	0.800000	0.000000 
0.675000	0.840000	0.000000 
0.675000	0.880000	0.000000 
0.675000	0.920000	0.000000 
0.675000	0.960000	0.000000 
0.675000	1.000000	0.000000 
0.712500	-1.000000	0.000000 
0.712500	-0.960000	0.000000 
0.712500	-0.920000	0.000000 
0.712500	-0.880000	0.000000 
0.712500	-0.840000	0.000000 
0.712500	-0.800000	0.000000 
0.712500	-0.760000	0.000000 
0.712500	-0.720000	0.000000 
0.712500	-0.680000	0.000000 
0.712500	-0.640000	0.000000 
0.712500	-0.600000	0.000000 
0.712500	-0.560000	0.000000 
0.712500	-0.520000	0.000000 
0.712500	-0.480000	0.000000 
0.712500	-0.440000	0.000000 
0.712500	-0.400000	0.000000 
0.712500	-0.360000	0.000000 
0.712500	-0.320000	0.000000 
0.712500	-0.280000	0.000000 
0.712500	-0.240000	0.000000 
0.712500	-0.200000	0.000000 
0.712500	-0.160000	0.000000 
0.712500	-0.120000	0.000000 
0.712500	-0.080000	0.000000 
0.712500	-0.040000	0.000000 
0.712500	0.000000	0.000000 
0.712500	0.040000	0.000000 
0.712500	0.080000	0.000000 
0.712500	0.120000	0.000000 
0.712500	0.160000	0.000000 
0.712500	0.200000	0.000000 
0.712500	0.240000	0.000000 
0.712500	0.280000	0.000000 
0.712500	0.320000	0.000000 
0.712500	0.360000	0.000000 
0.712500	0.400000	0.000000 
0.712500	0.440000	0.000000 
0.712500	0.480000	0.000000 
0.712500	0.520000	0.000000 
0.712500	0.560000	0.000000 
0.712500	0.600000	0.000000 
0.712500	0.640000	0.000000 
0.712500	0.680000	0.000000 
0.712500	0.720000	0.000000 
0.712500	0.760000	0.000000 
0.712500	0.800000	0.000000 
0.712500	0.840000	0.000000 
0.712500	0.880000	0.000000 
0.712500	0.920000	0.000000 
0.712500	0.960000	0.000000 
0.712500	1.000000	0.000000 
0.750000	-1.000000	0.000000 
0.750000	-0.960000	0.000000 
0.750000	-0.920000	0.000000 
0.750000	-0.880000	0.000000 
0.750000	-0.840000	0.000000 
0.750000	-0.800000	0.000000 
0.750000	-0.760000	0.000000 
0.750000	-0.720000	0.000000 
0.750000	-0.680000	0.000000 
0.750000	-0.640000	0.000000 
0.750000	-0.600000	0.000000 
0.750000	-0.560000	0.000000 
0.750000	-0.520000	0.000000 
0.750000	-0.480000	0.000000 
0.750000	-0.440000	0.000000 
0.750000	-0.400000	0.000000 
0.750000	-0.360000	0.000000 
0.750000	-0.320000	0.000000 
0.750000	-0.280000	0.000000 
0.750000	-0.240000	0.000000 
0.750000	-0.200000	0.000000 
0.750000	-0.160000	0.000000 
0.750000	-0.120000	0.000000 
0.750000	-0.080000	0.000000 
0.750000	-0.040000	0.000000 
0.750000	0.000000	0.000000 
0.750000	0.040000	0.000000 
0.750000	0.080000	0.000000 
0.750000	0.120000	0.000000 
0.750000	0.160000	0.000000 
0.750000	0.200000	0.000000 
0.750000	0.240000	0.000000 
0.750000	0.280000	0.000000 
0.750000	0.320000	0.000000 
0.750000	0.360000	0.000000 
0.750000	0.400000	0.000000 
0.750000	0.440000	0.000000 
0.750000	0.480000	0.000000 
0.750000	0.520000	0.000000 
0.750000	0.560000	0.000000 
0.750000	0.600000	0.000000 
0.750000	0.640000	0.000000 
0.750000	0.680000	0.000000 
0.750000	0.720000	0.000000 
0.750000	0.760000	0.000000 
0.750000	0.800000	0.000000 
0.750000	0.840000	0.000000 
0.750000	0.880000	0.000000 
0.750000	0.920000	0.000000 
0.750000	0.960000	0.000000 
0.750000	1.000000	0.000000 
0.787500	-1.000000	0.000000 
0.787500	-0.960000	0.000000 
0.787500	-0.920000	0.000000 
0.787500	-0.880000	0.000000 
0.787500	-0.840000	0.000000 
0.787500	-0.800000	0.000000 
0.787500	-0.760000	0.000000 
0.787500	-0.720000	0.000000 
0.787500	-0.680000	0.000000 
0.787500	-0.640000	0.000000 
0.787500	-0.600000	0.000000 
0.787500	-0.560000	0.000000 
0.787500	-0.520000	0.000000 
0.787500	-0.480000	0.000000 
0.787500	-0.440000	0.000000 
0.787500	-0.400000	0.000000 
0.787500	-0.360000	0.000000 
0.787500	-0.320000	0.000000 
0.787500	-0.280000	0.000000 
0.787500	-0.240000	0.000000 
0.787500	-0.200000	0.000000 
0.787500	-0.160000	0.000000 
0.787500	-0.120000	0.000000 
0.787500	-0.080000	0.000000 
0.787500	-0.040000	0.000000 
0.787500	0.000000	0.000000 
0.787500	0.040000	0.000000 
0.787500	0.080000	0.000000 
0.787500	0.120000	0.000000 
0.787500	0.160000	0.000000 
0.787500	0.200000	0.000000 
0.787500	0.240000	0.000000 
0.787500	0.280000	0.000000 
0.787500	0.320000	0.000000 
0.787500	0.360000	0.000000 
0.787500	0.400000	0.000000 
0.787500	0.440000	0.000000 
0.787500	0.480000	0.000000 
0.787500	0.520000	0.000000 
0.787500	0.560000	0.000000 
0.787500	0.600000	0.000000 
0.787500	0.640000	0.000000 
0.787500	0.680000	0.000000 
0.787500	0.720000	0.000000 
0.787500	0.760000	0.000000 
0.787500	0.800000	0.000000 
0.787500	0.840000	0.000000 
0.787500	0.880000	0.000000 
0.787500	0.920000	0.000000 
0.787500	0.960000	0.000000 
0.787500	1.000000	0.000000 
0.825000	-1.000000	0.000000 
0.825000	-0.960000	0.000000 
0.825000	-0.920000	0.000000 
0.825000	-0.880000	0.000000 
0.825000	-0.840000	0.000000 
0.825000	-0.800000	0.000000 
0.825000	-0.760000	0.000000 
0.825000	-0.720000	0.000000 
0.825000	-0.680000	0.000000 
0.825000	-0.640000	0.000000 
0.825000	-0.600000	0.000000 
0.825000	-0.560000	0.000000 
0.825000	-0.520000	0.000000 
0.825000	-0.480000	0.000000 
0.825000	-0.440000	0.000000 
0.825000	-0.400000	0.000000 
0.825000	-0.360000	0.000000 
0.825000	-0.320000	0.000000 
0.825000	-0.280000	0.000000 
0.825000	-0.240000	0.000000 
0.825000	-0.200000	0.000000 
0.825000	-0.160000	0.000000 
0.825000	-0.120000	0.000000 
0.825000	-0.080000	0.000000 
0.825000	-0.040000	0.000000 
0.825000	0.000000	0.000000 
0.825000	0.040000	0.000000 
0.825000	0.080000	0.000000 
0.825000	0.120000	0.000000 
0.825000	0.160000	0.000000 
0.825000	0.200000	0.000000 
0.825000	0.240000	0.000000 
0.825000	0.280000	0.000000 
0.825000	0.320000	0.000000 
0.825000	0.360000	0.000000 
0.825000	0.400000	0.000000 
0.825000	0.440000	0.000000 
0.825000	0.480000	0.000000 
0.825000	0.520000	0.000000 
0.825000	0.560000	0.000000 
0.825000	0.600000	0.000000 
0.825000	0.640000	0.000000 
0.825000	0.680000	0.000000 
0.825000	0.720000	0.000000 
0.825000	0.760000	0.000000 
0.825000	0.800000	0.000000 
0.825000	0.840000	0.000000 
0.825000	0.880000	0.000000 
0.825000	0.920000	0.000000 
0.825000	0.960000	0.000000 
0.825000	1.000000	0.000000 
0.862500	-1.000000	0.000000 
0.862500	-0.960000	0.000000 
0.862500	-0.920000	0.000000 
0.862500	-0.880000	0.000000 
0.862500	-0.840000	0.000000 
0.862500	-0.800000	0.000000 
0.862500	-0.760000	0.000000 
0.862500	-0.720000	0.000000 
0.862500	-0.680000	0.000000 
0.862500	-0.640000	0.000000 
0.862500	-0.600000	0.000000 
0.862500	-0.560000	0.000000 
0.862500	-0.520000	0.000000 
0.862500	-0.480000	0.000000 
0.862500	-0.440000	0.000000 
0.862500	-0.400000	0.000000 
0.862500	-0.360000	0.000000 
0.862500	-0.320000	0.000000 
0.862500	-0.280000	0.000000 
0.862500	-0.240000	0.000000 
0.862500	-0.200000	0.000000 
0.862500	-0.160000	0.000000 
0.862500	-0.120000	0.000000 
0.862500	-0.080000	0.000000 
0.862500	-0.040000	0.000000 
0.862500	0.000000	0.000000 
0.862500	0.040000	0.000000 
0.862500	0.080000	0.000000 
0.862500	0.120000	0.000000 
0.862500	0.160000	0.000000 
0.862500	0.200000	0.000000 
0.862500	0.240000	0.000000 
0.862500	0.280000	0.000000 
0.862500	0.320000	0.000000 
0.862500	0.360000	0.000000 
0.862500	0.400000	0.000000 
0.862500	0.440000	0.000000 
0.862500	0.480000	0.000000 
0.862500	0.520000	0.000000 
0.862500	0.560000	0.000000 
0.862500	0.600000	0.000000 
0.862500	0.640000	0.000000 
0.862500	0.680000	0.000000 
0.862500	0.720000	0.000000 
0.862500	0.760000	0.000000 
0.862500	0.800000	0.000000 
0.862500	0.840000	0.000000 
0.862500	0.880000	0.000000 
0.862500	0.920000	0.000000 
0.862500	0.960000	0.000000 
0.862500	1.000000	0.000000 
0.900000	-1.000000	0.000000 
0.900000	-0.960000	0.000000 
0.900000	-0.920000	0.000000 
0.900000	-0.880000	0.000000 
0.900000	-0.840000	0.000000 
0.900000	-0.800000	0.000000 
0.900000	-0.760000	0.000000 
0.900000	-0.720000	0.000000 
0.900000	-0.680000	0.000000 
0.900000	-0.640000	0.000000 
0.900000	-0.600000	0.000000 
0.900000	-0.560000	0.000000 
0.900000	-0.520000	0.000000 
0.900000	-0.480000	0.000000 
0.900000	-0.440000	0.000000 
0.900000	-0.400000	0.000000 
0.900000	-0.360000	0.000000 
0.900000	-0.320000	0.000000 
0.900000	-0.280000	0.000000 
0.900000	-0.240000	0.000000 
0.900000	-0.200000	0.000000 
0.900000	-0.160000	0.000000 
0.900000	-0.120000	0.000000 
0.900000	-0.080000	0.000000 
0.900000	-0.040000	0.000000 
0.900000	0.000000	0.000000 
0.900000	0.040000	0.000000 
0.900000	0.080000	0.000000 
0.900000	0.120000	0.000000 
0.900000	0.160000	0.000000 
0.900000	0.200000	0.000000 
0.900000	0.240000	0.000000 
0.900000	0.280000	0.000000 
0.900000	0.320000	0.000000 
0.900000	0.360000	0.000000 
0.900000	0.400000	0.000000 
0.900000	0.440000	0.000000 
0.900000	0.480000	0.000000 
0.900000	0.520000	0.000000 
0.900000	0.560000	0.000000 
0.900000	0.600000	0.000000 
0.900000	0.640000	0.000000 
0.900000	0.680000	0.000000 
0.900000	0.720000	0.000000 
0.900000	0.760000	0.000000 
0.900000	0.800000	0.000000 
0.900000	0.840000	0.000000 
0.900000	0.880000	0.000000 
0.900000	0.920000	0.000000 
0.900000	0.960000	0.000000 
0.900000	1.000000	0.000000 
0.937500	-1.000000	0.000000 
0.937500	-0.960000	0.000000 
0.937500	-0.920000	0.000000 
0.937500	-0.880000	0.000000 
0.937500	-0.840000	0.000000 
0.937500	-0.800000	0.000000 
0.937500	-0.760000	0.000000 
0.937500	-0.720000	0.000000 
0.937500	-0.680000	0.000000 
0.937500	-0.640000	0.000000 
0.937500	-0.600000	0.000000 
0.937500	-0.560000	0.000000 
0.937500	-0.520000	0.000000 
0.937500	-0.480000	0.000000 
0.937500	-0.440000	0.000000 
0.937500	-0.400000	0.000000 
0.937500	-0.360000	0.000000 
0.937500	-0.320000	0.000000 
0.937500	-0.280000	0.000000 
0.937500	-0.240000	0.000000 
0.937500	-0.200000	0.000000 
0.937500	-0.160000	0.000000 
0.937500	-0.120000	0.000000 
0.937500	-0.080000	0.000000 
0.937500	-0.040000	0.000000 
0.937500	0.000000	0.000000 
0.937500	0.040000	0.000000 
0.937500	0.080000	0.000000 
0.937500	0.120000	0.000000 
0.937500	0.160000	0.000000 
0.937500	0.200000	0.000000 
0.937500	0.240000	0.000000 
0.937500	0.280000	0.000000 
0.937500	0.320000	0.000000 
0.937500	0.360000	0.000000 
0.937500	0.400000	0.000000 
0.937500	0.440000	0.000000 
0.937500	0.480000	0.000000 
0.937500	0.520000	0.000000 
0.937500	0.560000	0.000000 
0.937500	0.600000	0.000000 
0.937500	0.640000	0.000000 
0.937500	0.680000	0.000000 
0.937500	0.720000	0.000000 
0.937500	0.760000	0.000000 
0.937500	0.800000	0.000000 
0.937500	0.840000	0.000000 
0.937500	0.880000	0.000000 
0.937500	0.920000	0.000000 
0.937500	0.960000	0.000000 
0.937500	1.000000	0.000000 
0.975000	-1.000000	0.000000 
0.975000	-0.960000	0.000000 
0.975000	-0.920000	0.000000 
0.975000	-0.880000	0.000000 
0.975000	-0.840000	0.000000 
0.975000	-0.800000	0.000000 
0.975000	-0.760000	0.000000 
0.975000	-0.720000	0.000000 
0.975000	-0.680000	0.000000 
0.975000	-0.640000	0.000000 
0.975000	-0.600000	0.000000 
0.975000	-0.560000	0.000000 
0.975000	-0.520000	0.000000 
0.975000	-0.480000	0.000000 
0.975000	-0.440000	0.000000 
0.975000	-0.400000	0.000000 
0.975000	-0.360000	0.000000 
0.975000	-0.320000	0.000000 
0.975000	-0.280000	0.000000 
0.975000	-0.240000	0.000000 
0.975000	-0.200000	0.000000 
0.975000	-0.160000	0.000000 
0.975000	-0.120000	0.000000 
0.975000	-0.080000	0.000000 
0.975000	-0.040000	0.000000 
0.975000	0.000000	0.000000 
0.975000	0.040000	0.000000 
0.975000	0.080000	0.000000 
0.975000	0.120000	0.000000 
0.975000	0.160000	0.000000 
0.975000	0.200000	0.000000 
0.975000	0.240000	0.000000 
0.975000	0.280000	0.000000 
0.975000	0.320000	0.000000 
0.975000	0.360000	0.000000 
0.975000	0.400000	0.000000 
0.975000	0.440000	0.000000 
0.975000	0.480000	0.000000 
0.975000	0.520000	0.000000 
0.975000	0.560000	0.000000 
0.975000	0.600000	0.000000 
0.975000	0.640000	0.000000 
0.975000	0.680000	0.000000 
0.975000	0.720000	0.000000 
0.975000	0.760000	0.000000 
0.975000	0.800000	0.000000 
0.975000	0.840000	0.000000 
0.975000	0.880000	0.000000 
0.975000	0.920000	0.000000 
0.975000	0.960000	0.000000 
0.975000	1.000000	0.000000 
1.012500	-1.000000	0.000000 
1.012500	-0.960000	0.000000 
1.012500	-0.920000	0.000000 
1.012500	-0.880000	0.000000 
1.012500	-0.840000	0.000000 
1.012500	-0.800000	0.000000 
1.012500	-0.760000	0.000000 
1.012500	-0.720000	0.000000 
1.012500	-0.680000	0.000000 
1.012500	-0.640000	0.000000 
1.012500	-0.600000	0.000000 
1.012500	-0.560000	0.000000 
1.012500	-0.520000	0.000000 
1.012500	-0.480000	0.000000 
1.012500	-0.440000	0.000000 
1.012500	-0.400000	0.000000 
1.012500	-0.360000	0.000000 
1.012500	-0.320000	0.000000 
1.012500	-0.280000	0.000000 
1.012500	-0.240000	0.000000 
1.012500	-0.200000	0.000000 
1.012500	-0.160000	0.000000 
1.012500	-0.120000	0.000000 
1.012500	-0.080000	0.000000 
1.012500	-0.040000	0.000000 
1.012500	0.000000	0.000000 
1.012500	0.040000	0.000000 
1.012500	0.080000	0.000000 
1.012500	0.120000	0.000000 
1.012500	0.160000	0.000000 
1.012500	0.200000	0.000000 
1.012500	0.240000	0.000000 
1.012500	0.280000	0.000000 
1.012500	0.320000	0.000000 
1.012500	0.360000	0.000000 
1.012500	0.400000	0.000000 
1.012500	0.440000	0.000000 
1.012500	0.480000	0.000000 
1.012500	0.520000	0.000000 
1.012500	0.560000	0.000000 
1.012500	0.600000	0.000000 
1.012500	0.640000	0.000000 
1.012500	0.680000	0.000000 
1.012500	0.720000	0.000000 
1.012500	0.760000	0.000000 
1.012500	0.800000	0.000000 
1.012500	0.840000	0.000000 
1.012500	0.880000	0.000000 
1.012500	0.920000	0.000000 
1.012500	0.960000	0.000000 
1.012500	1.000000	0.000000 
1.050000	-1.000000	0.000000 
1.050000	-0.960000	0.000000 
1.050000	-0.920000	0.000000 
1.050000	-0.880000	0.000000 
1.050000	-0.840000	0.000000 
1.050000	-0.800000	0.000000 
1.050000	-0.760000	0.000000 
1.050000	-0.720000	0.000000 
1.050000	-0.680000	0.000000 
1.050000	-0.640000	0.000000 
1.050000	-0.600000	0.000000 
1.050000	-0.560000	0.000000 
1.050000	-0.520000	0.000000 
1.050000	-0.480000	0.000000 
1.050000	-0.440000	0.000000 
1.050000	-0.400000	0.000000 
1.050000	-0.360000	0.000000 
1.050000	-0.320000	0.000000 
1.050000	-0.280000	0.000000 
1.050000	-0.240000	0.000000 
1.050000	-0.200000	0.000000 
1.050000	-0.160000	0.000000 
1.050000	-0.120000	0.000000 
1.050000	-0.080000	0.000000 
1.050000	-0.040000	0.000000 
1.050000	0.000000	0.000000 
1.050000	0.040000	0.000000 
1.050000	0.080000	0.000000 
1.050000	0.120000	0.000000 
1.050000	0.160000	0.000000 
1.050000	0.200000	0.000000 
1.050000	0.240000	0.000000 
1.050000	0.280000	0.000000 
1.050000	0.320000	0.000000 
1.050000	0.360000	0.000000 
1.050000	0.400000	0.000000 
1.050000	0.440000	0.000000 
1.050000	0.480000	0.000000 
1.050000	0.520000	0.000000 
1.050000	0.560000	0.000000 
1.050000	0.600000	0.000000 
1.050000	0.640000	0.000000 
1.050000	0.680000	0.000000 
1.050000	0.720000	0.000000 
1.050000	0.760000	0.000000 
1.050000	0.800000	0.000000 
1.050000	0.840000	0.000000 
1.050000	0.880000	0.000000 
1.050000	0.920000	0.000000 
1.050000	0.960000	0.000000 
1.050000	1.000000	0.000000 
1.087500	-1.000000	0.000000 
1.087500	-0.960000	0.000000 
1.087500	-0.920000	0.000000 
1.087500	-0.880000	0.000000 
1.087500	-0.840000	0.000000 
1.087500	-0.800000	0.000000 
1.087500	-0.760000	0.000000 
1.087500	-0.720000	0.000000 
1.087500	-0.680000	0.000000 
1.087500	-0.640000	0.000000 
1.087500	-0.600000	0.000000 
1.087500	-0.560000	0.000000 
1.087500	-0.520000	0.000000 
1.087500	-0.480000	0.000000 
1.087500	-0.440000	0.000000 
1.087500	-0.400000	0.000000 
1.087500	-0.360000	0.000000 
1.087500	-0.320000	0.000000 
1.087500	-0.280000	0.000000 
1.087500	-0.240000	0.000000 
1.087500	-0.200000	0.000000 
1.087500	-0.160000	0.000000 
1.087500	-0.120000	0.000000 
1.087500	-0.080000	0.000000 
1.087500	-0.040000	0.000000 
1.087500	0.000000	0.000000 
1.087500	0.040000	0.000000 
1.087500	0.080000	0.000000 
1.087500	0.120000	0.000000 
1.087500	0.160000	0.000000 
1.087500	0.200000	0.000000 
1.087500	0.240000	0.000000 
1.087500	0.280000	0.000000 
1.087500	0.320000	0.000000 
1.087500	0.360000	0.000000 
1.087500	0.400000	0.000000 
1.087500	0.440000	0.000000 
1.087500	0.480000	0.000000 
1.087500	0.520000	0.000000 
1.087500	0.560000	0.000000 
1.087500	0.600000	0.000000 
1.087500	0.640000	0.000000 
1.087500	0.680000	0.000000 
1.087500	0.720000	0.000000 
1.087500	0.760000	0.000000 
1.087500	0.800000	0.000000 
1.087500	0.840000	0.000000 
1.087500	0.880000	0.000000 
1.087500	0.920000	0.000000 
1.087500	0.960000	0.000000 
1.087500	1.000000	0.000000 
1.125000	-1.000000	0.000000 
1.125000	-0.960000	0.000000 
1.125000	-0.920000	0.000000 
1.125000	-0.880000	0.000000 
1.125000	-0.840000	0.000000 
1.125000	-0.800000	0.000000 
1.125000	-0.760000	0.000000 
1.125000	-0.720000	0.000000 
1.125000	-0.680000	0.000000 
1.125000	-0.640000	0.000000 
1.125000	-0.600000	0.000000 
1.125000	-0.560000	0.000000 
1.125000	-0.520000	0.000000 
1.125000	-0.480000	0.000000 
1.125000	-0.440000	0.000000 
1.125000	-0.400000	0.000000 
1.125000	-0.360000	0.000000 
1.125000	-0.320000	0.000000 
1.125000	-0.280000	0.000000 
1.125000	-0.240000	0.000000 
1.125000	-0.200000	0.000000 
1.125000	-0.160000	0.000000 
1.125000	-0.120000	0.000000 
1.125000	-0.080000	0.000000 
1.125000	-0.040000	0.000000 
1.125000	0.000000	0.000000 
1.125000	0.040000	0.000000 
1.125000	0.080000	0.000000 
1.125000	0.120000	0.000000 
1.125000	0.160000	0.000000 
1.125000	0.200000	0.000000 
1.125000	0.240000	0.000000 
1.125000	0.280000	0.000000 
1.125000	0.320000	0.000000 
1.125000	0.360000	0.000000 
1.125000	0.400000	0.000000 
1.125000	0.440000	0.000000 
1.125000	0.480000	0.000000 
1.125000	0.520000	0.000000 
1.125000	0.560000	0.000000 
1.125000	0.600000	0.000000 
1.125000	0.640000	0.000000 
1.125000	0.680000	0.000000 
1.125000	0.720000	0.000000 
1.125000	0.760000	0.000000 
1.125000	0.800000	0.000000 
1.125000	0.840000	0.000000 
1.125000	0.880000	0.000000 
1.125000	0.920000	0.000000 
1.125000	0.960000	0.000000 
1.125000	1.000000	0.000000 
1.162500	-1.000000	0.000000 
1.162500	-0.960000	0.000000 
1.162500	-0.920000	0.000000 
1.162500	-0.880000	0.000000 
1.162500	-0.840000	0.000000 
1.162500	-0.800000	0.000000 
1.162500	-0.760000	0.000000 
1.162500	-0.720000	0.000000 
1.162500	-0.680000	0.000000 
1.162500	-0.640000	0.000000 
1.162500	-0.600000	0.000000 
1.162500	-0.560000	0.000000 
1.162500	-0.520000	0.000000 
1.162500	-0.480000	0.000000 
1.162500	-0.440000	0.000000 
1.162500	-0.400000	0.000000 
1.162500	-0.360000	0.000000 
1.162500	-0.320000	0.000000 
1.162500	-0.280000	0.000000 
1.162500	-0.240000	0.000000 
1.162500	-0.200000	0.000000 
1.162500	-0.160000	0.000000 
1.162500	-0.120000	0.000000 
1.162500	-0.080000	0.000000 
1.162500	-0.040000	0.000000 
1.162500	0.000000	0.000000 
1.162500	0.040000	0.000000 
1.162500	0.080000	0.000000 
1.162500	0.120000	0.000000 
1.162500	0.160000	0.000000 
1.162500	0.200000	0.000000 
1.162500	0.240000	0.000000 
1.162500	0.280000	0.000000 
1.162500	0.320000	0.000000 
1.162500	0.360000	0.000000 
1.162500	0.400000	0.000000 
1.162500	0.440000	0.000000 
1.162500	0.480000	0.000000 
1.162500	0.520000	0.000000 
1.162500	0.560000	0.000000 
1.162500	0.600000	0.000000 
1.162500	0.640000	0.000000 
1.162500	0.680000	0.000000 
1.162500	0.720000	0.000000 
1.162500	0.760000	0.000000 
1.162500	0.800000	0.000000 
1.162500	0.840000	0.000000 
1.162500	0.880000	0.000000 
1.162500	0.920000	0.000000 
1.162500	0.960000	0.000000 
1.162500	1.000000	0.000000 
1.200000	-1.000000	0.000000 
1.200000	-0.960000	0.000000 
1.200000	-0.920000	0.000000 
1.200000	-0.880000	0.000000 
1.200000	-0.840000	0.000000 
1.200000	-0.800000	0.000000 
1.200000	-0.760000	0.000000 
1.200000	-0.720000	0.000000 
1.200000	-0.680000	0.000000 
1.200000	-0.640000	0.000000 
1.200000	-0.600000	0.000000 
1.200000	-0.560000	0.000000 
1.200000	-0.520000	0.000000 
1.200000	-0.480000	0.000000 
1.200000	-0.440000	0.000000 
1.200000	-0.400000	0.000000 
1.200000	-0.360000	0.000000 
1.200000	-0.320000	0.000000 
1.200000	-0.280000	0.000000 
1.200000	-0.240000	0.000000 
1.200000	-0.200000	0.000000 
1.200000	-0.160000	0.000000 
1.200000	-0.120000	0.000000 
1.200000	-0.080000	0.000000 
1.200000	-0.040000	0.000000 
1.200000	0.000000	0.000000 
1.200000	0.040000	0.000000 
1.200000	0.080000	0.000000 
1.200000	0.120000	0.000000 
1.200000	0.160000	0.000000 
1.200000	0.200000	0.000000 
1.200000	0.240000	0.000000 
1.200000	0.280000	0.000000 
1.200000	0.320000	0.000000 
1.200000	0.360000	0.000000 
1.200000	0.400000	0.000000 
1.200000	0.440000	0.000000 
1.200000	0.480000	0.000000 
1.200000	0.520000	0.000000 
1.200000	0.560000	0.000000 
1.200000	0.600000	0.000000 
1.200000	0.640000	0.000000 
1.200000	0.680000	0.000000 
1.200000	0.720000	0.000000 
1.200000	0.760000	0.000000 
1.200000	0.800000	0.000000 
1.200000	0.840000	0.000000 
1.200000	0.880000	0.000000 
1.200000	0.920000	0.000000 
1.200000	0.960000	0.000000 
1.200000	1.000000	0.000000 
1.237500	-1.000000	0.000000 
1.237500	-0.960000	0.000000 
1.237500	-0.920000	0.000000 
1.237500	-0.880000	0.000000 
1.237500	-0.840000	0.000000 
1.237500	-0.800000	0.000000 
1.237500	-0.760000	0.000000 
1.237500	-0.720000	0.000000 
1.237500	-0.680000	0.000000 
1.237500	-0.640000	0.000000 
1.237500	-0.600000	0.000000 
1.237500	-0.560000	0.000000 
1.237500	-0.520000	0.000000 
1.237500	-0.480000	0.000000 
1.237500	-0.440000	0.000000 
1.237500	-0.400000	0.000000 
1.237500	-0.360000	0.000000 
1.237500	-0.320000	0.000000 
1.237500	-0.280000	0.000000 
1.237500	-0.240000	0.000000 
1.237500	-0.200000	0.000000 
1.237500	-0.160000	0.000000 
1.237500	-0.120000	0.000000 
1.237500	-0.080000	0.000000 
1.237500	-0.040000	0.000000 
1.237500	0.000000	0.000000 
1.237500	0.040000	0.000000 
1.237500	0.080000	0.000000 
1.237500	0.120000	0.000000 
1.237500	0.160000	0.000000 
1.237500	0.200000	0.000000 
1.237500	0.240000	0.000000 
1.237500	0.280000	0.000000 
1.237500	0.320000	0.000000 
1.237500	0.360000	0.000000 
1.237500	0.400000	0.000000 
1.237500	0.440000	0.000000 
1.237500	0.480000	0.000000 
1.237500	0.520000	0.000000 
1.237500	0.560000	0.000000 
1.237500	0.600000	0.000000 
1.237500	0.640000	0.000000 
1.237500	0.680000	0.000000 
1.237500	0.720000	0.000000 
1.237500	0.760000	0.000000 
1.237500	0.800000	0.000000 
1.237500	0.840000	0.000000 
1.237500	0.880000	0.000000 
1.237500	0.920000	0.000000 
1.237500	0.960000	0.000000 
1.237500	1.000000	0.000000 
1.275000	-1.000000	0.000000 
1.275000	-0.960000	0.000000 
1.275000	-0.920000	0.000000 
1.275000	-0.880000	0.000000 
1.275000	-0.840000	0.000000 
1.275000	-0.800000	0.000000 
1.275000	-0.760000	0.000000 
1.275000	-0.720000	0.000000 
1.275000	-0.680000	0.000000 
1.275000	-0.640000	0.000000 
1.275000	-0.600000	0.000000 
1.275000	-0.560000	0.000000 
1.275000	-0.520000	0.000000 
1.275000	-0.480000	0.000000 
1.275000	-0.440000	0.000000 
1.275000	-0.400000	0.000000 
1.275000	-0.360000	0.000000 
1.275000	-0.320000	0.000000 
1.275000	-0.280000	0.000000 
1.275000	-0.240000	0.000000 
1.275000	-0.200000	0.000000 
1.275000	-0.160000	0.000000 
1.275000	-0.120000	0.000000 
1.275000	-0.080000	0.000000 
1.275000	-0.040000	0.000000 
1.275000	0.000000	0.000000 
1.275000	0.040000	0.000000 
1.275000	0.080000	0.000000 
1.275000	0.120000	0.000000 
1.275000	0.160000	0.000000 
1.275000	0.200000	0.000000 
1.275000	0.240000	0.000000 
1.275000	0.280000	0.000000 
1.275000	0.320000	0.000000 
1.275000	0.360000	0.000000 
1.275000	0.400000	0.000000 
1.275000	0.440000	0.000000 
1.275000	0.480000	0.000000 
1.275000	0.520000	0.000000 
1.275000	0.560000	0.000000 
1.275000	0.600000	0.000000 
1.275000	0.640000	0.000000 
1.275000	0.680000	0.000000 
1.275000	0.720000	0.000000 
1.275000	0.760000	0.000000 
1.275000	0.800000	0.000000 
1.275000	0.840000	0.000000 
1.275000	0.880000	0.000000 
1.275000	0.920000	0.000000 
1.275000	0.960000	0.000000 
1.275000	1.000000	0.000000 
1.312500	-1.000000	0.000000 
1.312500	-0.960000	0.000000 
1.312500	-0.920000	0.000000 
1.312500	-0.880000	0.000000 
1.312500	-0.840000	0.000000 
1.312500	-0.800000	0.000000 
1.312500	-0.760000	0.000000 
1.312500	-0.720000	0.000000 
1.312500	-0.680000	0.000000 
1.312500	-0.640000	0.000000 
1.312500	-0.600000	0.000000 
1.312500	-0.560000	0.000000 
1.312500	-0.520000	0.000000 
1.312500	-0.480000	0.000000 
1.312500	-0.440000	0.000000 
1.312500	-0.400000	0.000000 
1.312500	-0.360000	0.000000 
1.312500	-0.320000	0.000000 
1.312500	-0.280000	0.000000 
1.312500	-0.240000	0.000000 
1.312500	-0.200000	0.000000 
1.312500	-0.160000	0.000000 
1.312500	-0.120000	0.000000 
1.312500	-0.080000	0.000000 
1.312500	-0.040000	0.000000 
1.312500	0.000000	0.000000 
1.312500	0.040000	0.000000 
1.312500	0.080000	0.000000 
1.312500	0.120000	0.000000 
1.312500	0.160000	0.000000 
1.312500	0.200000	0.000000 
1.312500	0.240000	0.000000 
1.312500	0.280000	0.000000 
1.312500	0.320000	0.000000 
1.312500	0.360000	0.000000 
1.312500	0.400000	0.000000 
1.312500	0.440000	0.000000 
1.312500	0.480000	0.000000 
1.312500	0.520000	0.000000 
1.312500	0.560000	0.000000 
1.312500	0.600000	0.000000 
1.312500	0.640000	0.000000 
1.312500	0.680000	0.000000 
1.312500	0.720000	0.000000 
1.312500	0.760000	0.000000 
1.312500	0.800000	0.000000 
1.312500	0.840000	0.000000 
1.312500	0.880000	0.000000 
1.312500	0.920000	0.000000 
1.312500	0.960000	0.000000 
1.312500	1.000000	0.000000 
1.350000	-1.000000	0.000000 
1.350000	-0.960000	0.000000 
1.350000	-0.920000	0.000000 
1.350000	-0.880000	0.000000 
1.350000	-0.840000	0.000000 
1.350000	-0.800000	0.000000 
1.350000	-0.760000	0.000000 
1.350000	-0.720000	0.000000 
1.350000	-0.680000	0.000000 
1.350000	-0.640000	0.000000 
1.350000	-0.600000	0.000000 
1.350000	-0.560000	0.000000 
1.350000	-0.520000	0.000000 
1.350000	-0.480000	0.000000 
1.350000	-0.440000	0.000000 
1.350000	-0.400000	0.000000 
1.350000	-0.360000	0.000000 
1.350000	-0.320000	0.000000 
1.350000	-0.280000	0.000000 
1.350000	-0.240000	0.000000 
1.350000	-0.200000	0.000000 
1.350000	-0.160000	0.000000 
1.350000	-0.120000	0.000000 
1.350000	-0.080000	0.000000 
1.350000	-0.040000	0.000000 
1.350000	0.000000	0.000000 
1.350000	0.040000	0.000000 
1.350000	0.080000	0.000000 
1.350000	0.120000	0.000000 
1.350000	0.160000	0.000000 
1.350000	0.200000	0.000000 
1.350000	0.240000	0.000000 
1.350000	0.280000	0.000000 
1.350000	0.320000	0.000000 
1.350000	0.360000	0.000000 
1.350000	0.400000	0.000000 
1.350000	0.440000	0.000000 
1.350000	0.480000	0.000000 
1.350000	0.520000	0.000000 
1.350000	0.560000	0.000000 
1.350000	0.600000	0.000000 
1.350000	0.640000	0.000000 
1.350000	0.680000	0.000000 
1.350000	0.720000	0.000000 
1.350000	0.760000	0.000000 
1.350000	0.800000	0.000000 
1.350000	0.840000	0.000000 
1.350000	0.880000	0.000000 
1.350000	0.920000	0.000000 
1.350000	0.960000	0.000000 
1.350000	1.000000	0.000000 
1.387500	-1.000000	0.000000 
1.387500	-0.960000	0.000000 
1.387500	-0.920000	0.000000 
1.387500	-0.880000	0.000000 
1.387500	-0.840000	0.000000 
1.387500	-0.800000	0.000000 
1.387500	-0.760000	0.000000 
1.387500	-0.720000	0.000000 
1.387500	-0.680000	0.000000 
1.387500	-0.640000	0.000000 
1.387500	-0.600000	0.000000 
1.387500	-0.560000	0.000000 
1.387500	-0.520000	0.000000 
1.387500	-0.480000	0.000000 
1.387500	-0.440000	0.000000 
1.387500	-0.400000	0.000000 
1.387500	-0.360000	0.000000 
1.387500	-0.320000	0.000000 
1.387500	-0.280000	0.000000 
1.387500	-0.240000	0.000000 
1.387500	-0.200000	0.000000 
1.387500	-0.160000	0.000000 
1.387500	-0.120000	0.000000 
1.387500	-0.080000	0.000000 
1.387500	-0.040000	0.000000 
1.387500	0.000000	0.000000 
1.387500	0.040000	0.000000 
1.387500	0.080000	0.000000 
1.387500	0.120000	0.000000 
1.387500	0.160000	0.000000 
1.387500	0.200000	0.000000 
1.387500	0.240000	0.000000 
1.387500	0.280000	0.000000 
1.387500	0.320000	0.000000 
1.387500	0.360000	0.000000 
1.387500	0.400000	0.000000 
1.387500	0.440000	0.000000 
1.387500	0.480000	0.000000 
1.387500	0.520000	0.000000 
1.387500	0.560000	0.000000 
1.387500	0.600000	0.000000 
1.387500	0.640000	0.000000 
1.387500	0.680000	0.000000 
1.387500	0.720000	0.000000 
1.387500	0.760000	0.000000 
1.387500	0.800000	0.000000 
1.387500	0.840000	0.000000 
1.387500	0.880000	0.000000 
1.387500	0.920000	0.000000 
1.387500	0.960000	0.000000 
1.387500	1.000000	0.000000 
1.425000	-1.000000	0.000000 
1.425000	-0.960000	0.000000 
1.425000	-0.920000	0.000000 
1.425000	-0.880000	0.000000 
1.425000	-0.840000	0.000000 
1.425000	-0.800000	0.000000 
1.425000	-0.760000	0.000000 
1.425000	-0.720000	0.000000 
1.425000	-0.680000	0.000000 
1.425000	-0.640000	0.000000 
1.425000	-0.600000	0.000000 
1.425000	-0.560000	0.000000 
1.425000	-0.520000	0.000000 
1.425000	-0.480000	0.000000 
1.425000	-0.440000	0.000000 
1.425000	-0.400000	0.000000 
1.425000	-0.360000	0.000000 
1.425000	-0.320000	0.000000 
1.425000	-0.280000	0.000000 
1.425000	-0.240000	0.000000 
1.425000	-0.200000	0.000000 
1.425000	-0.160000	0.000000 
1.425000	-0.120000	0.000000 
1.425000	-0.080000	0.000000 
1.425000	-0.040000	0.000000 
1.425000	0.000000	0.000000 
1.425000	0.040000	0.000000 
1.425000	0.080000	0.000000 
1.425000	0.120000	0.000000 
1.425000	0.160000	0.000000 
1.425000	0.200000	0.000000 
1.425000	0.240000	0.000000 
1.425000	0.280000	0.000000 
1.425000	0.320000	0.000000 
1.425000	0.360000	0.000000 
1.425000	0.400000	0.000000 
1.425000	0.440000	0.000000 
1.425000	0.480000	0.000000 
1.425000	0.520000	0.000000 
1.425000	0.560000	0.000000 
1.425000	0.600000	0.000000 
1.425000	0.640000	0.000000 
1.425000	0.680000	0.000000 
1.425000	0.720000	0.000000 
1.425000	0.760000	0.000000 
1.425000	0.800000	0.000000 
1.425000	0.840000	0.000000 
1.425000	0.880000	0.000000 
1.425000	0.920000	0.000000 
1.425000	0.960000	0.000000 
1.425000	1.000000	0.000000 
1.462500	-1.000000	0.000000 
1.462500	-0.960000	0.000000 
1.462500	-0.920000	0.000000 
1.462500	-0.880000	0.000000 
1.462500	-0.840000	0.000000 
1.462500	-0.800000	0.000000 
1.462500	-0.760000	0.000000 
1.462500	-0.720000	0.000000 
1.462500	-0.680000	0.000000 
1.462500	-0.640000	0.000000 
1.462500	-0.600000	0.000000 
1.462500	-0.560000	0.000000 
1.462500	-0.520000	0.000000 
1.462500	-0.480000	0.000000 
1.462500	-0.440000	0.000000 
1.462500	-0.400000	0.000000 
1.462500	-0.360000	0.000000 
1.462500	-0.320000	0.000000 
1.462500	-0.280000	0.000000 
1.462500	-0.240000	0.000000 
1.462500	-0.200000	0.000000 
1.462500	-0.160000	0.000000 
1.462500	-0.120000	0.000000 
1.462500	-0.080000	0.000000 
1.462500	-0.040000	0.000000 
1.462500	0.000000	0.000000 
1.462500	0.040000	0.000000 
1.462500	0.080000	0.000000 
1.462500	0.120000	0.000000 
1.462500	0.160000	0.000000 
1.462500	0.200000	0.000000 
1.462500	0.240000	0.000000 
1.462500	0.280000	0.000000 
1.462500	0.320000	0.000000 
1.462500	0.360000	0.000000 
1.462500	0.400000	0.000000 
1.462500	0.440000	0.000000 
1.462500	0.480000	0.000000 
1.462500	0.520000	0.000000 
1.462500	0.560000	0.000000 
1.462500	0.600000	0.000000 
1.462500	0.640000	0.000000 
1.462500	0.680000	0.000000 
1.462500	0.720000	0.000000 
1.462500	0.760000	0.000000 
1.462500	0.800000	0.000000 
1.462500	0.840000	0.000000 
1.462500	0.880000	0.000000 
1.462500	0.920000	0.000000 
1.462500	0.960000	0.000000 
1.462500	1.000000	0.000000 
1.500000	-1.000000	0.000000 
1.500000	-0.960000	0.000000 
1.500000	-0.920000	0.000000 
1.500000	-0.880000	0.000000 
1.500000	-0.840000	0.000000 
1.500000	-0.800000	0.000000 
1.500000	-0.760000	0.000000 
1.500000	-0.720000	0.000000 
1.500000	-0.680000	0.000000 
1.500000	-0.640000	0.000000 
1.500000	-0.600000	0.000000 
1.500000	-0.560000	0.000000 
1.500000	-0.520000	0.000000 
1.500000	-0.480000	0.000000 
1.500000	-0.440000	0.000000 
1.500000	-0.400000	0.000000 
1.500000	-0.360000	0.000000 
1.500000	-0.320000	0.000000 
1.500000	-0.280000	0.000000 
1.500000	-0.240000	0.000000 
1.500000	-0.200000	0.000000 
1.500000	-0.160000	0.000000 
1.500000	-0.120000	0.000000 
1.500000	-0.080000	0.000000 
1.500000	-0.040000	0.000000 
1.500000	0.000000	0.000000 
1.500000	0.040000	0.000000 
1.500000	0.080000	0.000000 
1.500000	0.120000	0.000000 
1.500000	0.160000	0.000000 
1.500000	0.200000	0.000000 
1.500000	0.240000	0.000000 
1.500000	0.280000	0.000000 
1.500000	0.320000	0.000000 
1.500000	0.360000	0.000000 
1.500000	0.400000	0.000000 
1.500000	0.440000	0.000000 
1.500000	0.480000	0.000000 
1.500000	0.520000	0.000000 
1.500000	0.560000	0.000000 
1.500000	0.600000	0.000000 
1.500000	0.640000	0.000000 
1.500000	0.680000	0.000000 
1.500000	0.720000	0.000000 
1.500000	0.760000	0.000000 
1.500000	0.800000	0.000000 
1.500000	0.840000	0.000000 
1.500000	0.880000	0.000000 
1.500000	0.920000	0.000000 
1.500000	0.960000	0.000000 
1.500000	1.000000	0.000000 
